********************************************************************************
Field Output Report, written Thu Apr 10 15:59:10 2025

Source 1
---------

   ODB: F:/Abaqus_calc/Vel_40/odb/Correct/aisi_1020_2a_32_red_500_cal_30_vel_40_fric_025.odb
   Step: Step-1
   Frame: Increment   1737068: Step Time =   0.2320

Loc 1 : Nodal values from source 1

Output sorted by column "Nodal Label".

Field Output reported at nodes for region: DIE_2A_32_D0_36-1.Region_1
   Computation algorithm: EXTRAPOLATE_COMPUTE_AVERAGE
   Averaged at nodes
   Averaging regions: ODB_REGIONS

      Node Label  COORD.Magnitude     COORD.COOR1     COORD.COOR2
                          @Loc 1          @Loc 1          @Loc 1
------------------------------------------------------------------
               1     122.997E-03     21.8134E-03     121.048E-03


Field Output reported at nodes for region: DIE_2A_32_D0_36-1.Region_2
   Computation algorithm: EXTRAPOLATE_COMPUTE_AVERAGE
   Averaged at nodes
   Averaging regions: ODB_REGIONS

      Node Label  COORD.Magnitude     COORD.COOR1     COORD.COOR2
                          @Loc 1          @Loc 1          @Loc 1
------------------------------------------------------------------
               1     122.997E-03     21.8134E-03     121.048E-03


Field Output reported at nodes for part: WIRE_1-1
   Computation algorithm: EXTRAPOLATE_COMPUTE_AVERAGE
   Averaged at nodes
   Averaging regions: ODB_REGIONS

      Node Label  COORD.Magnitude     COORD.COOR1     COORD.COOR2    PE.Max. Prin    PE.Mid. Prin    PE.Min. Prin         PE.PE11         PE.PE22         PE.PE33         PE.PE12            PEEQ         S.Mises     S.Max. Prin     S.Mid. Prin     S.Min. Prin           S.S11           S.S22           S.S33           S.S12
                          @Loc 1          @Loc 1          @Loc 1          @Loc 1          @Loc 1          @Loc 1          @Loc 1          @Loc 1          @Loc 1          @Loc 1          @Loc 1          @Loc 1          @Loc 1          @Loc 1          @Loc 1          @Loc 1          @Loc 1          @Loc 1          @Loc 1
----------------------------------------------------------------------------------------------------------------------------------------------------------------------------------------------------------------------------------------------------------------------------------------------------------------------------------
               1     64.6183E-03     17.0002E-03     62.3419E-03     120.307E-03    -58.0904E-03    -62.2169E-03    -55.4898E-03     113.580E-03    -58.0904E-03     68.7675E-03     359.474E-03     136.816E+06     135.367E+06     129.131E+06    -4.45973E+06    -4.45633E+06     135.364E+06     129.131E+06     573.008E+03
               2     61.6493E-03    -586.792E-09     61.6493E-03     115.384E-03    -57.4103E-03    -57.9736E-03    -57.7458E-03     115.383E-03    -57.6372E-03     702.694E-06     116.187E-03     211.237E+06    -69.1413E+06    -73.4839E+06    -282.513E+06    -70.6355E+06    -282.505E+06    -71.9981E+06    -1.21016E+06
               3     3.02727E-06     3.02727E-06     41.6334E-18     266.195E-03    -132.484E-03    -133.711E-03    -133.702E-03     266.186E-03    -132.484E-03     3.80825E-03     268.111E-03     211.948E+06    -50.5663E+06    -52.0067E+06    -263.231E+06    -50.5664E+06    -263.231E+06    -52.0067E+06     154.492E+03
               4     16.5623E-03     16.5623E-03     41.6334E-18     263.170E-03    -78.8240E-03    -184.346E-03    -149.968E-03     228.792E-03    -78.8240E-03     238.353E-03     333.587E-03     125.297E+06     158.889E+06     146.450E+06     27.8364E+06     28.0869E+06     146.200E+06     158.889E+06     5.44518E+06
               5     126.323E-03     16.3715E-03     125.258E-03     40.4426E-03     36.6603E-03    -77.1029E-03     39.7307E-03     37.3722E-03    -77.1029E-03     2.95692E-03     77.6394E-03     82.1588E+06     40.2824E+06    -27.2010E+06    -51.2050E+06     36.2632E+06    -23.1818E+06    -51.2050E+06     15.9711E+06
               6     121.925E-03     1.33805E-06     121.925E-03     53.3205E-03    -25.8686E-03    -27.4519E-03    -27.4273E-03     53.2959E-03    -25.8686E-03    -2.81974E-03     53.3356E-03     83.4851E+06     92.8922E+06     89.6444E+06     7.83058E+06     89.2852E+06     8.18974E+06     92.8922E+06    -5.40885E+06
               7     64.3037E-03     16.0558E-03     62.2670E-03     137.283E-03    -58.0972E-03    -79.1855E-03    -56.1159E-03     114.213E-03    -58.0972E-03     125.576E-03     429.098E-03     134.864E+06     130.299E+06     122.832E+06    -8.13770E+06    -8.12681E+06     130.288E+06     122.832E+06     710.944E+03
               8     63.8701E-03     15.1084E-03     62.0575E-03     145.411E-03    -58.0071E-03    -87.4038E-03    -57.2773E-03     115.284E-03    -58.0071E-03     154.837E-03     426.550E-03     127.208E+06     121.931E+06     95.8143E+06    -15.2280E+06    -15.2183E+06     121.922E+06     95.8143E+06     590.178E+03
               9     63.5152E-03     14.1654E-03     61.9155E-03     128.180E-03    -57.8255E-03    -70.3546E-03    -56.8051E-03     114.631E-03    -57.8255E-03     96.7859E-03     317.206E-03     119.039E+06     114.954E+06     58.3419E+06    -20.9397E+06    -20.9376E+06     114.952E+06     58.3419E+06     490.469E+03
              10     63.2401E-03     13.2202E-03     61.8428E-03     118.480E-03    -57.6682E-03    -60.8117E-03    -55.9734E-03     113.642E-03    -57.6682E-03     57.4733E-03     256.926E-03     115.537E+06     104.953E+06     23.4242E+06    -26.1750E+06    -26.1483E+06     104.926E+06     23.4242E+06     1.48467E+06
              11     62.9983E-03     12.2743E-03     61.7910E-03     116.289E-03    -57.6281E-03    -58.6611E-03    -56.2287E-03     113.862E-03    -57.6336E-03     40.0337E-03     218.525E-03     78.2155E+06     59.5519E+06    -1.31680E+06    -28.1734E+06    -28.0805E+06     59.4590E+06    -1.31680E+06     1.92561E+06
              12     62.7859E-03     11.3299E-03     61.7552E-03     115.266E-03    -57.4797E-03    -57.7867E-03    -56.4143E-03     114.159E-03    -57.7451E-03     27.2595E-03     193.673E-03     38.4207E+06     5.66685E+06    -18.0250E+06    -38.3266E+06    -27.7409E+06    -14.4269E+06    -8.51704E+06    -299.324E+03
              13     62.5995E-03     10.3831E-03     61.7324E-03     115.550E-03    -57.6053E-03    -57.9444E-03    -56.9512E-03     114.827E-03    -57.8758E-03     22.3009E-03     177.037E-03     56.3113E+06    -7.52743E+06    -28.8072E+06    -71.0346E+06    -28.9237E+06    -70.9181E+06    -7.52743E+06    -1.27559E+06
              14     62.4260E-03     9.44046E-03     61.7081E-03     115.651E-03    -57.6066E-03    -58.0443E-03    -57.1778E-03     115.154E-03    -57.9757E-03     18.2509E-03     163.276E-03     95.4564E+06    -6.45572E+06    -30.0471E+06    -111.400E+06    -30.0864E+06    -111.361E+06    -6.45572E+06    -93.4076E+03
              15     62.2753E-03     8.49500E-03     61.6932E-03     115.480E-03    -57.3984E-03    -58.0813E-03    -57.1437E-03     115.225E-03    -58.0813E-03     13.1142E-03     151.942E-03     131.831E+06    -7.09164E+06    -33.1019E+06    -149.931E+06    -33.2276E+06    -149.806E+06    -7.09164E+06     1.58855E+06
              16     62.1413E-03     7.55083E-03     61.6808E-03     115.795E-03    -57.6031E-03    -58.1918E-03    -57.4524E-03     115.644E-03    -58.1918E-03     10.1626E-03     143.534E-03     164.206E+06    -7.97229E+06    -38.9479E+06    -185.373E+06    -39.0732E+06    -185.248E+06    -7.97229E+06     3.09313E+06
              17     62.0250E-03     6.60776E-03     61.6720E-03     115.947E-03    -57.6855E-03    -58.2618E-03    -57.5881E-03     115.850E-03    -58.2618E-03     8.11069E-03     136.552E-03     186.921E+06    -14.0895E+06    -45.7482E+06    -214.746E+06    -45.7901E+06    -214.704E+06    -14.0895E+06     2.08938E+06
              18     61.9221E-03     5.66231E-03     61.6627E-03     116.152E-03    -57.8023E-03    -58.3494E-03    -57.8022E-03     116.095E-03    -58.2931E-03     6.09397E-03     130.895E-03     197.259E+06    -23.1110E+06    -51.2185E+06    -232.896E+06    -51.2311E+06    -232.883E+06    -23.1110E+06     882.687E+03
              19     61.8395E-03     4.71855E-03     61.6592E-03     116.358E-03    -57.9608E-03    -58.3969E-03    -58.0188E-03     116.328E-03    -58.3094E-03     4.46001E-03     126.433E-03     206.647E+06    -30.5215E+06    -55.5532E+06    -248.534E+06    -55.5637E+06    -248.523E+06    -30.5215E+06     1.11109E+06
              20     61.7706E-03     3.77516E-03     61.6551E-03     116.410E-03    -58.0716E-03    -58.3382E-03    -58.0889E-03     116.396E-03    -58.3071E-03     2.99015E-03     122.818E-03     214.741E+06    -38.7749E+06    -60.0480E+06    -263.344E+06    -60.0590E+06    -263.333E+06    -38.7749E+06     1.34451E+06
              21     61.7177E-03     2.83085E-03     61.6528E-03     116.572E-03    -58.1743E-03    -58.3980E-03    -58.3278E-03     116.568E-03    -58.2397E-03     1.75864E-03     120.329E-03     214.065E+06    -49.2747E+06    -64.8015E+06    -270.652E+06    -64.8100E+06    -270.644E+06    -49.2747E+06     1.16708E+06
              22     61.6803E-03     1.88809E-03     61.6514E-03     116.472E-03    -58.0621E-03    -58.4100E-03    -58.4084E-03     116.471E-03    -58.0621E-03     959.160E-06     118.519E-03     213.288E+06    -59.2353E+06    -68.5800E+06    -277.024E+06    -68.5970E+06    -277.008E+06    -59.2353E+06     1.30804E+06
              23     61.6577E-03     944.737E-06     61.6505E-03     115.824E-03    -57.6761E-03    -58.1474E-03    -58.0333E-03     115.823E-03    -57.7896E-03     622.192E-06     116.897E-03     212.247E+06    -66.1855E+06    -71.6498E+06    -281.104E+06    -70.2399E+06    -281.086E+06    -67.6139E+06     184.383E+03
              24     60.5291E-03     117.810E-09     60.5291E-03     116.305E-03    -57.5663E-03    -58.7384E-03    -58.5097E-03     116.303E-03    -57.7931E-03     1.14683E-03     117.221E-03     210.338E+06    -68.5368E+06    -74.5613E+06    -281.822E+06    -71.7056E+06    -281.821E+06    -71.3936E+06    -427.976E+03
              25     59.4055E-03     1.70139E-06     59.4055E-03     117.154E-03    -58.0290E-03    -59.1250E-03    -58.9732E-03     117.153E-03    -58.1797E-03     736.042E-06     118.027E-03     210.629E+06    -67.8613E+06    -72.6980E+06    -280.863E+06    -71.0372E+06    -280.855E+06    -69.5303E+06    -1.02932E+06
              26     58.2827E-03    -2.00988E-06     58.2827E-03     116.502E-03    -58.0976E-03    -58.4046E-03    -58.2529E-03     116.501E-03    -58.2483E-03     717.793E-06     117.442E-03     211.578E+06    -69.8533E+06    -71.6274E+06    -282.308E+06    -69.9695E+06    -282.297E+06    -71.5223E+06    -363.086E+03
              27     57.1604E-03     2.30083E-06     57.1604E-03     116.500E-03    -57.8225E-03    -58.6777E-03    -58.6756E-03     116.498E-03    -57.8225E-03     1.22097E-03     117.283E-03     211.422E+06    -70.0523E+06    -71.9943E+06    -282.433E+06    -71.9996E+06    -282.428E+06    -70.0523E+06     79.8839E+03
              28     56.0377E-03    -963.670E-09     56.0377E-03     116.338E-03    -57.7925E-03    -58.5457E-03    -58.4903E-03     116.337E-03    -57.8468E-03     675.783E-06     116.980E-03     210.068E+06    -69.3580E+06    -73.7561E+06    -281.589E+06    -71.1972E+06    -281.587E+06    -71.9192E+06    -508.156E+03
              29     54.9186E-03     825.194E-09     54.9186E-03     115.968E-03    -57.7664E-03    -58.2019E-03    -58.1465E-03     115.967E-03    -57.8207E-03     654.162E-06     116.819E-03     209.886E+06    -71.1785E+06    -75.9369E+06    -283.403E+06    -73.3759E+06    -283.403E+06    -73.7396E+06    -122.999E+03
              30     53.7914E-03    -82.0000E-09     53.7914E-03     115.677E-03    -57.6196E-03    -58.0576E-03    -58.0526E-03     115.672E-03    -57.6196E-03     1.77164E-03     116.656E-03     209.575E+06    -68.4597E+06    -71.7645E+06    -279.666E+06    -70.6605E+06    -279.662E+06    -69.5672E+06    -701.829E+03
              31     52.6757E-03     163.349E-09     52.6757E-03     116.113E-03    -57.7008E-03    -58.4120E-03    -58.4079E-03     116.109E-03    -57.7008E-03     880.526E-06     116.831E-03     208.922E+06    -67.0855E+06    -68.3036E+06    -276.612E+06    -67.1998E+06    -276.609E+06    -68.1930E+06    -438.835E+03
              32     51.5516E-03     1.06954E-06     51.5516E-03     116.310E-03    -57.7992E-03    -58.5110E-03    -58.5108E-03     116.310E-03    -57.7992E-03    -300.033E-06     116.852E-03     209.799E+06    -68.7279E+06    -69.2281E+06    -278.776E+06    -69.2285E+06    -278.776E+06    -68.7279E+06     69.1915E+03
              33     50.4299E-03    -959.091E-09     50.4299E-03     115.582E-03    -57.7457E-03    -57.8368E-03    -57.7992E-03     115.579E-03    -57.7793E-03     1.14734E-03     116.320E-03     209.858E+06    -71.6253E+06    -74.1829E+06    -282.745E+06    -72.0451E+06    -282.715E+06    -73.7932E+06     1.68631E+06
              34     49.3065E-03     856.477E-09     49.3065E-03     115.674E-03    -57.5067E-03    -58.1673E-03    -58.1292E-03     115.670E-03    -57.5403E-03     1.59159E-03     116.385E-03     209.838E+06    -65.8991E+06     -70.756E+06    -278.123E+06    -68.6182E+06    -278.093E+06    -68.0670E+06     1.68101E+06
              35     48.1885E-03     356.932E-09     48.1885E-03     116.342E-03    -57.6826E-03    -58.6594E-03    -58.6564E-03     116.339E-03    -57.6826E-03     1.36969E-03     117.122E-03     209.594E+06    -67.9302E+06    -71.4744E+06    -279.268E+06    -70.6208E+06    -279.266E+06    -68.7854E+06     298.590E+03
              36     47.0628E-03     284.481E-09     47.0628E-03     116.572E-03    -58.0817E-03    -58.4906E-03    -58.4290E-03     116.570E-03    -58.1407E-03     977.382E-06     117.520E-03     209.033E+06    -68.8980E+06    -69.9282E+06    -278.444E+06    -68.9308E+06    -278.411E+06    -69.9282E+06    -1.41337E+06
              37     45.9434E-03    -400.527E-09     45.9434E-03     116.025E-03    -57.7920E-03    -58.2331E-03    -58.1740E-03     116.025E-03    -57.8510E-03     207.375E-06     116.761E-03     208.641E+06    -71.6665E+06    -73.1088E+06    -281.023E+06    -71.7209E+06    -280.969E+06    -73.1088E+06    -257.651E+03
              38     44.8208E-03     1.10227E-06     44.8208E-03     115.695E-03    -57.5407E-03    -58.1546E-03    -58.1541E-03     115.695E-03    -57.5407E-03     528.686E-06     116.257E-03     207.274E+06    -73.1994E+06    -76.6682E+06    -282.184E+06    -75.4259E+06    -282.159E+06    -74.4667E+06     1.11812E+06
              39     43.6994E-03    -641.040E-09     43.6994E-03     115.444E-03    -57.5911E-03    -57.8528E-03    -57.8220E-03     115.443E-03    -57.6210E-03     801.892E-06     115.956E-03     207.250E+06    -67.6259E+06    -71.5805E+06    -276.824E+06    -69.8362E+06    -276.815E+06    -69.3789E+06    -1.28431E+06
              40     42.5784E-03     557.378E-09     42.5784E-03     115.417E-03    -57.3900E-03    -58.0271E-03    -57.9963E-03     115.416E-03    -57.4199E-03     789.644E-06     115.956E-03     206.820E+06    -71.1476E+06    -73.2970E+06    -279.031E+06    -71.5512E+06    -279.023E+06    -72.9006E+06    -657.577E+03
              41     41.4576E-03     589.781E-09     41.4576E-03     116.288E-03    -57.7459E-03    -58.5417E-03    -58.5397E-03     116.286E-03    -57.7459E-03     1.10040E-03     117.007E-03     205.509E+06    -74.2102E+06    -74.9547E+06    -280.090E+06    -74.6086E+06    -280.088E+06    -74.5583E+06     592.275E+03
              42     40.3346E-03    -244.551E-09     40.3346E-03     116.463E-03    -58.1335E-03    -58.3292E-03    -58.3203E-03     116.461E-03    -58.1406E-03     533.551E-06     117.165E-03     204.959E+06    -73.2590E+06    -73.6408E+06    -278.408E+06    -73.2943E+06    -278.407E+06    -73.6071E+06     319.847E+03
              43     39.2123E-03     228.836E-09     39.2123E-03     116.183E-03    -57.8616E-03    -58.3211E-03    -58.3111E-03     116.180E-03    -57.8687E-03     751.937E-06     116.905E-03     203.953E+06    -71.0633E+06    -71.3605E+06    -275.164E+06    -71.3753E+06    -275.150E+06    -71.0633E+06     1.14167E+06
              44     38.0911E-03     620.190E-09     38.0911E-03     117.057E-03    -58.2856E-03    -58.7710E-03    -58.7676E-03     117.053E-03    -58.2856E-03     1.49099E-03     117.934E-03     204.167E+06    -69.0270E+06    -69.6636E+06    -273.511E+06    -69.3143E+06    -273.487E+06    -69.4001E+06     258.250E+03
              45     36.9658E-03    -567.730E-09     36.9658E-03     116.580E-03    -58.2589E-03    -58.3207E-03    -58.3199E-03     116.579E-03    -58.2589E-03     651.353E-06     117.480E-03     203.044E+06    -72.7923E+06    -73.5037E+06    -276.191E+06    -72.8079E+06    -276.175E+06    -73.5037E+06    -1.77662E+06
              46     35.8452E-03     615.152E-09     35.8452E-03     115.435E-03    -57.3602E-03    -58.0750E-03    -58.0737E-03     115.434E-03    -57.3602E-03     785.494E-06     116.353E-03     201.294E+06    -76.0866E+06     -76.655E+06    -277.664E+06    -76.3385E+06    -277.643E+06    -76.4249E+06     426.715E+03
              47     34.7260E-03     677.586E-09     34.7260E-03     116.121E-03    -57.5805E-03    -58.5405E-03    -58.5392E-03     116.120E-03    -57.5805E-03     422.156E-06     117.141E-03     202.031E+06    -71.9708E+06    -73.4035E+06    -274.712E+06    -73.4321E+06    -274.684E+06    -71.9708E+06     78.2895E+03
              48     33.6022E-03    -148.967E-09     33.6022E-03     116.527E-03    -58.0810E-03    -58.4464E-03    -58.4462E-03     116.527E-03    -58.0810E-03    -122.105E-06     117.595E-03     202.475E+06    -73.6116E+06    -76.5624E+06    -277.545E+06    -74.8276E+06    -277.532E+06    -75.3598E+06    -1.13366E+06
              49     32.4804E-03     294.772E-09     32.4804E-03     116.607E-03    -57.8905E-03    -58.7166E-03    -58.7161E-03     116.607E-03    -57.8905E-03     519.098E-06     117.384E-03     201.374E+06    -73.5432E+06    -78.0288E+06    -277.120E+06    -76.2901E+06    -277.111E+06    -75.2913E+06     990.412E+03
              50     31.3561E-03     1.12221E-06     31.3561E-03     116.412E-03    -57.7576E-03    -58.6548E-03    -58.6529E-03     116.410E-03    -57.7576E-03     1.12866E-03     117.053E-03     201.263E+06    -71.3808E+06    -77.1461E+06    -275.465E+06    -74.1288E+06    -275.454E+06    -74.4086E+06     633.730E+03
              51     30.2351E-03    -861.707E-09     30.2351E-03     115.879E-03    -57.8510E-03    -58.0277E-03    -58.0114E-03     115.877E-03    -57.8654E-03     1.13525E-03     116.667E-03     200.536E+06    -70.5142E+06    -75.9262E+06    -273.701E+06    -72.9032E+06    -273.696E+06    -73.5419E+06     274.909E+03
              52     29.1140E-03     860.208E-09     29.1140E-03     116.022E-03    -57.9022E-03    -58.1200E-03    -58.1047E-03     116.021E-03    -57.9165E-03     827.238E-06     116.701E-03     198.333E+06    -70.0224E+06    -74.6664E+06    -270.637E+06    -72.4120E+06    -270.632E+06    -72.2822E+06     1.00434E+06
              53     27.9914E-03    -510.581E-09     27.9914E-03     116.582E-03    -57.9774E-03    -58.6041E-03    -58.6034E-03     116.581E-03    -57.9774E-03     693.008E-06     117.246E-03     200.604E+06    -69.8436E+06    -75.1314E+06    -273.038E+06    -72.8738E+06    -273.036E+06    -72.1033E+06     186.504E+03
              54     26.8699E-03     1.34320E-06     26.8699E-03     116.399E-03    -57.8634E-03    -58.5352E-03    -58.5347E-03     116.398E-03    -57.8634E-03     535.796E-06     117.229E-03     202.910E+06    -70.0601E+06    -75.3745E+06    -275.574E+06    -73.0936E+06    -275.569E+06    -72.3464E+06    -927.351E+03
              55     25.7455E-03    -907.597E-09     25.7455E-03     115.441E-03    -57.5828E-03    -57.8585E-03    -57.8569E-03     115.440E-03    -57.5828E-03     942.493E-06     116.220E-03     202.515E+06    -72.5692E+06    -75.4147E+06    -276.486E+06    -72.5750E+06    -276.481E+06    -75.4147E+06    -441.361E+03
              56     24.6280E-03     944.658E-09     24.6280E-03     115.828E-03    -57.6584E-03    -58.1694E-03    -58.1676E-03     115.826E-03    -57.6584E-03     1.08784E-03     116.607E-03     202.071E+06    -74.2102E+06    -75.1860E+06    -276.768E+06    -74.6289E+06    -276.766E+06    -74.7693E+06    -84.6843E+03
              57     23.5033E-03    -31.1321E-09     23.5033E-03     115.748E-03    -57.5669E-03    -58.1807E-03    -58.0502E-03     115.747E-03    -57.6969E-03     320.586E-06     116.675E-03     201.728E+06    -76.3016E+06    -77.0066E+06    -278.381E+06    -77.0084E+06    -278.379E+06    -76.3016E+06    -115.512E+03
              58     22.3840E-03    -214.979E-09     22.3840E-03     114.364E-03    -56.8641E-03    -57.4998E-03    -57.3682E-03     114.362E-03    -56.9941E-03     655.437E-06     115.403E-03     201.455E+06    -77.6956E+06    -79.0817E+06    -279.839E+06    -79.0920E+06    -279.829E+06    -77.6956E+06    -744.812E+03
              59     21.2629E-03     1.17644E-06     21.2629E-03     113.862E-03    -56.6505E-03    -57.2111E-03    -57.2084E-03     113.859E-03    -56.6505E-03     1.38048E-03     114.709E-03     201.057E+06    -76.7656E+06    -79.3319E+06    -279.093E+06    -77.8957E+06    -279.061E+06    -78.2340E+06    -2.49741E+06
              60     20.1458E-03    -1.09968E-06     20.1458E-03     113.695E-03    -56.6634E-03    -57.0318E-03    -57.0305E-03     113.694E-03    -56.6634E-03     827.399E-06     114.384E-03     200.257E+06    -74.3820E+06    -77.1466E+06    -276.007E+06    -74.4948E+06    -275.894E+06    -77.1466E+06     1.49962E+06
              61     19.0246E-03     1.67012E-06     19.0246E-03     112.425E-03    -55.8445E-03    -56.5806E-03    -56.5805E-03     112.425E-03    -55.8445E-03     209.349E-06     113.163E-03     200.864E+06    -73.1185E+06    -77.2444E+06    -276.009E+06    -76.0402E+06    -275.917E+06    -74.4146E+06     2.60550E+06
              62     17.9103E-03    -840.237E-09     17.9103E-03     109.960E-03    -54.7238E-03    -55.2363E-03    -55.2362E-03     109.960E-03    -54.7238E-03    -14.3786E-06     110.685E-03     202.033E+06    -72.1688E+06    -76.7967E+06    -276.474E+06    -75.0134E+06    -276.460E+06    -73.9669E+06    -1.56250E+06
              63     16.7953E-03     981.023E-09     16.7953E-03     107.374E-03    -53.4021E-03    -53.9716E-03    -53.9689E-03     107.371E-03    -53.4021E-03    -969.411E-06     107.866E-03     202.313E+06    -73.1957E+06    -75.1106E+06    -276.454E+06    -73.3449E+06    -276.421E+06    -74.9938E+06     236.542E+03
              64     15.6875E-03    -80.9441E-09     15.6875E-03     103.243E-03    -51.2107E-03    -52.0328E-03    -51.6852E-03     103.238E-03    -51.5531E-03    -1.78644E-03     103.527E-03     202.928E+06    -75.1404E+06    -75.6066E+06    -278.301E+06    -75.2869E+06    -278.271E+06    -75.4898E+06     2.42374E+06
              65     14.5791E-03    -584.715E-09     14.5791E-03     96.3708E-03    -47.7825E-03    -48.5883E-03    -48.2399E-03     96.3648E-03    -48.1249E-03    -1.84409E-03     96.6017E-03     201.979E+06    -70.4556E+06    -71.1177E+06    -272.765E+06    -70.8158E+06    -272.717E+06    -70.8049E+06    -898.484E+03
              66     13.4854E-03     1.46822E-06     13.4854E-03     87.4396E-03    -43.3052E-03    -44.1344E-03    -44.1195E-03     87.4248E-03    -43.3052E-03    -2.66385E-03     87.7347E-03     201.221E+06    -66.8868E+06    -69.3585E+06    -269.326E+06    -67.2950E+06    -269.230E+06    -69.0458E+06     509.882E+03
              67     12.4023E-03    -819.364E-09     12.4023E-03     77.9297E-03    -38.7577E-03    -39.1720E-03    -39.0973E-03     77.9036E-03    -38.8062E-03    -3.48363E-03     78.2947E-03     201.897E+06    -61.3376E+06    -67.1556E+06    -266.076E+06    -65.0794E+06    -265.993E+06    -63.4965E+06     3.99518E+06
              68     11.3253E-03     741.636E-09     11.3253E-03     68.6952E-03    -34.1984E-03    -34.4968E-03    -34.4178E-03     68.6647E-03    -34.2469E-03    -3.54350E-03     69.1071E-03     202.325E+06    -50.1844E+06    -57.0026E+06    -255.832E+06    -53.8698E+06    -255.806E+06    -53.3435E+06     1.10758E+06
              69     10.2622E-03    -331.915E-09     10.2622E-03     60.0112E-03    -29.7674E-03    -30.2438E-03    -30.1960E-03     59.9634E-03    -29.7674E-03    -4.06404E-03     60.3600E-03     203.500E+06    -45.6307E+06    -50.5970E+06    -251.565E+06    -47.4450E+06    -251.558E+06    -48.7898E+06    -1.17445E+06
              70     9.20728E-03     725.988E-09     9.20728E-03     54.6121E-03    -27.1604E-03    -27.4517E-03    -27.4120E-03     54.5724E-03    -27.1604E-03    -3.43047E-03     54.9438E-03     204.208E+06    -42.3664E+06    -44.2306E+06    -247.495E+06    -44.2419E+06    -247.483E+06    -42.3664E+06     70.6454E+03
              71     8.15221E-03    -622.042E-09     8.15221E-03     54.7916E-03    -27.3402E-03    -27.4514E-03    -27.4429E-03     54.7831E-03    -27.3402E-03    -1.48027E-03     55.6850E-03     204.074E+06    -38.9075E+06    -39.0914E+06    -243.074E+06    -38.9707E+06    -243.068E+06    -39.0345E+06     703.066E+03
              72     7.09686E-03     701.894E-09     7.09686E-03     63.1016E-03    -31.3953E-03    -31.7063E-03    -31.7005E-03     63.0958E-03    -31.3953E-03     647.748E-06     64.6401E-03     205.052E+06    -42.3143E+06    -44.9035E+06    -248.639E+06    -44.7854E+06    -248.630E+06    -42.4413E+06    -1.03683E+06
              73     6.02789E-03    -151.468E-09     6.02789E-03     83.8495E-03    -41.7628E-03    -42.0867E-03    -42.0563E-03     83.8191E-03    -41.7628E-03     3.75224E-03     85.7662E-03     206.376E+06    -46.3287E+06    -51.0024E+06    -255.002E+06    -48.8285E+06    -254.964E+06    -48.5402E+06    -2.68230E+06
              74     4.92620E-03     242.613E-09     4.92620E-03     118.321E-03    -58.9983E-03    -59.3225E-03    -58.9833E-03     118.246E-03    -59.2632E-03     7.23885E-03     120.470E-03     208.557E+06    -52.2273E+06    -54.4712E+06    -261.889E+06    -52.2888E+06    -261.860E+06    -54.4388E+06    -1.56228E+06
              75     3.77979E-03    -734.129E-09     3.77979E-03     163.746E-03    -81.4475E-03    -82.2980E-03    -81.9470E-03     163.659E-03    -81.7125E-03     9.10114E-03     165.971E-03     211.129E+06    -55.9197E+06    -57.2000E+06    -267.684E+06    -55.9736E+06    -267.662E+06    -57.1676E+06    -1.33068E+06
              76     2.57473E-03     1.82393E-06     2.57473E-03     212.066E-03    -105.682E-03    -106.385E-03    -106.202E-03     212.001E-03    -105.799E-03     9.02962E-03     214.286E-03     211.918E+06    -56.6002E+06    -59.8863E+06    -270.142E+06    -58.6722E+06    -270.108E+06    -57.8481E+06    -360.306E+03
              77     1.30627E-03    -2.01421E-06     1.30627E-03     250.811E-03    -125.040E-03    -125.771E-03    -125.621E-03     250.778E-03    -125.157E-03     6.33962E-03     252.879E-03     211.814E+06    -54.0280E+06    -56.7865E+06    -267.205E+06    -56.0788E+06    -267.192E+06    -54.7483E+06     1.22261E+06
              78     871.025E-06     871.025E-06     41.6334E-18     262.923E-03    -130.341E-03    -132.582E-03    -130.931E-03     262.899E-03    -131.969E-03     5.75426E-03     264.762E-03     212.532E+06    -50.7919E+06    -52.3064E+06    -264.078E+06    -51.5870E+06    -264.077E+06    -51.5121E+06     370.320E+03
              79     1.74950E-03     1.74950E-03     41.6334E-18     254.311E-03    -124.302E-03    -130.009E-03    -124.239E-03     254.248E-03    -130.009E-03     9.53589E-03     256.062E-03     213.034E+06    -52.0077E+06    -54.7112E+06    -266.378E+06    -52.8120E+06    -266.368E+06    -53.9169E+06    -705.860E+03
              80     2.63401E-03     2.63401E-03     41.6334E-18     242.406E-03    -115.691E-03    -126.715E-03    -115.568E-03     242.283E-03    -126.715E-03     13.0850E-03     244.121E-03     212.881E+06    -53.3505E+06    -56.5971E+06    -267.835E+06    -53.3599E+06    -267.826E+06    -56.5971E+06    -1.10544E+06
              81     3.52701E-03     3.52701E-03     41.6334E-18     228.429E-03    -105.710E-03    -122.720E-03    -105.521E-03     228.241E-03    -122.720E-03     15.7790E-03     230.101E-03     212.618E+06    -53.7815E+06    -55.6516E+06    -267.327E+06    -53.7838E+06    -267.325E+06    -55.6516E+06    -593.648E+03
              82     4.43196E-03     4.43196E-03     41.6334E-18     213.506E-03    -95.2803E-03    -118.226E-03    -95.0385E-03     213.264E-03    -118.226E-03     17.2329E-03     215.237E-03     212.557E+06    -53.2262E+06    -58.4414E+06    -268.313E+06    -53.2715E+06    -268.268E+06    -58.4414E+06    -2.64926E+06
              83     5.34502E-03     5.34502E-03     41.6334E-18     198.529E-03    -85.0937E-03    -113.436E-03    -84.8017E-03     198.237E-03    -113.436E-03     18.1489E-03     200.509E-03     212.782E+06    -48.9103E+06    -66.2017E+06    -269.699E+06    -49.0439E+06    -269.565E+06    -66.2017E+06    -5.34724E+06
              84     6.26884E-03     6.26884E-03     41.6334E-18     184.127E-03    -75.6058E-03    -108.521E-03    -75.2557E-03     183.777E-03    -108.521E-03     19.0157E-03     186.682E-03     201.665E+06    -41.9869E+06    -76.2655E+06    -258.362E+06    -42.3523E+06    -257.997E+06    -76.2655E+06    -8.53017E+06
              85     7.20051E-03     7.20051E-03     41.6334E-18     171.350E-03    -67.7085E-03    -103.641E-03    -67.3098E-03     170.951E-03    -103.641E-03     19.4924E-03     174.970E-03     169.893E+06    -35.6468E+06    -90.7639E+06    -225.383E+06    -36.1231E+06    -224.907E+06    -90.7639E+06    -9.48970E+06
              86     8.14007E-03     8.14007E-03     41.6334E-18     159.870E-03    -60.9085E-03    -98.9615E-03    -60.4705E-03     159.432E-03    -98.9615E-03     19.6276E-03     165.083E-03     133.615E+06    -27.6409E+06    -104.932E+06    -180.198E+06    -28.6093E+06    -179.229E+06    -104.932E+06    -11.2733E+06
              87     9.08265E-03     9.08265E-03     41.6334E-18     149.487E-03    -54.9477E-03    -94.5394E-03    -54.5008E-03     149.040E-03    -94.5394E-03     19.0966E-03     156.788E-03     107.578E+06    -17.3192E+06    -100.884E+06    -138.565E+06    -18.8353E+06    -122.540E+06    -115.393E+06    -12.5313E+06
              88     10.0380E-03     10.0380E-03     41.6334E-18     141.022E-03    -50.5648E-03    -90.4571E-03    -49.9465E-03     140.404E-03    -90.4571E-03     21.4329E-03     150.961E-03     98.3553E+06    -6.62100E+06    -53.8748E+06    -113.916E+06    -10.6519E+06    -49.8439E+06    -113.916E+06    -9.13765E+06
              89     10.9791E-03     10.9791E-03     41.6334E-18     133.880E-03    -47.0143E-03    -86.8656E-03    -46.3645E-03     133.230E-03    -86.8656E-03     21.5259E-03     147.428E-03     101.353E+06     27.7052E+06    -13.1442E+06    -84.8269E+06    -8.89218E+06     23.4532E+06    -84.8269E+06    -3.50689E+06
              90     11.9544E-03     11.9544E-03     41.6334E-18     128.915E-03    -45.1256E-03    -83.7898E-03    -44.1438E-03     127.934E-03    -83.7898E-03     25.1646E-03     146.874E-03     101.495E+06     74.2954E+06    -6.99441E+06    -36.7439E+06    -10.5462E+06     74.2481E+06    -33.1448E+06     1.76304E+06
              91     12.8810E-03     12.8810E-03     41.6334E-18     127.904E-03    -46.6937E-03    -81.2102E-03    -45.3810E-03     126.591E-03    -81.2102E-03     30.0995E-03     152.464E-03     101.347E+06     101.890E+06     20.3558E+06    -8.94914E+06    -8.88022E+06     101.821E+06     20.3558E+06     362.739E+03
              92     13.8721E-03     13.8721E-03     41.6334E-18     136.553E-03    -57.1949E-03    -79.3582E-03    -53.8980E-03     133.256E-03    -79.3582E-03     47.6672E-03     169.931E-03     109.978E+06     111.868E+06     68.0476E+06    -10.3507E+06    -9.18718E+06     110.704E+06     68.0476E+06     7.22328E+06
              93     14.7467E-03     14.7467E-03     41.6334E-18     141.167E-03    -63.0774E-03    -78.0898E-03    -55.1266E-03     133.216E-03    -78.0898E-03     77.6808E-03     191.386E-03     117.995E+06     108.245E+06     96.8684E+06    -14.7516E+06    -13.6078E+06     107.102E+06     96.8684E+06     7.94137E+06
              94     15.7100E-03     15.7100E-03     41.6334E-18     200.417E-03    -69.4890E-03    -130.928E-03    -99.8276E-03     177.994E-03    -78.1668E-03     163.459E-03     266.908E-03     122.143E+06     131.791E+06     124.453E+06     6.21861E+06     6.34730E+06     125.443E+06     130.672E+06     2.26846E+06
              95     16.7420E-03     16.6823E-03     1.41332E-03     233.531E-03    -76.4501E-03    -157.081E-03    -122.488E-03     198.938E-03    -76.4501E-03     221.177E-03     383.629E-03     136.058E+06     138.653E+06     130.202E+06    -1.37288E+06    -1.06262E+06     129.892E+06     138.653E+06      -929.2E+03
              96     16.9436E-03     16.7607E-03     2.48289E-03     178.835E-03    -71.9298E-03    -106.905E-03    -79.8869E-03     151.817E-03    -71.9298E-03     166.826E-03     396.679E-03     139.474E+06     129.426E+06     122.831E+06    -13.2124E+06    -11.7722E+06     121.390E+06     129.426E+06     5.20699E+06
              97     17.2260E-03     16.8441E-03     3.60704E-03     154.159E-03    -67.3314E-03    -86.8275E-03    -75.8359E-03     143.167E-03    -67.3314E-03     90.6139E-03     312.591E-03     130.456E+06     133.447E+06     127.724E+06     248.576E+03     1.58786E+06     126.385E+06     133.447E+06     11.1709E+06
              98     17.5517E-03     16.8990E-03     4.74201E-03     160.277E-03    -63.1916E-03    -97.0855E-03    -94.4600E-03     157.652E-03    -63.1916E-03     51.6564E-03     269.633E-03     131.481E+06     129.010E+06     127.113E+06    -3.40693E+06    -2.98634E+06     126.692E+06     129.010E+06     7.04236E+06
              99     17.9663E-03     16.9433E-03     5.97599E-03     164.019E-03    -60.4990E-03    -103.520E-03    -100.245E-03     160.744E-03    -60.4990E-03     58.3617E-03     280.503E-03     134.618E+06     128.817E+06     128.003E+06    -6.20591E+06    -5.61796E+06     127.415E+06     128.817E+06     8.83849E+06
             100     18.4125E-03     16.9695E-03     7.14531E-03     158.062E-03    -58.9477E-03    -99.1139E-03    -95.7741E-03     154.722E-03    -58.9477E-03     57.9728E-03     294.555E-03     134.800E+06     129.579E+06     128.266E+06    -5.87137E+06    -5.58008E+06     127.974E+06     129.579E+06     5.73982E+06
             101     18.9051E-03     16.9848E-03     8.30172E-03     152.511E-03    -58.0290E-03    -94.4815E-03    -92.2946E-03     150.324E-03    -58.0290E-03     46.0618E-03     304.322E-03     132.743E+06     130.445E+06     128.490E+06    -3.26399E+06    -3.21791E+06     128.444E+06     130.445E+06     998.026E+03
             102     19.4582E-03     16.9952E-03     9.47540E-03     149.056E-03    -57.5365E-03    -91.5199E-03    -89.4314E-03     146.968E-03    -57.5365E-03     44.4535E-03     313.956E-03     131.707E+06     127.792E+06     125.138E+06    -5.22030E+06    -5.20162E+06     125.120E+06     127.792E+06    -1.53749E+06
             103     20.0508E-03     16.9971E-03     10.6364E-03     145.928E-03    -57.4214E-03    -88.5062E-03    -85.5788E-03     143.000E-03    -57.4214E-03     51.8455E-03     326.464E-03     132.896E+06     130.409E+06     126.819E+06    -4.24501E+06    -4.22656E+06     126.801E+06     130.409E+06    -279.155E+03
             104     20.6921E-03     16.9989E-03     11.7984E-03     139.448E-03    -57.5351E-03    -81.9132E-03    -78.2834E-03     135.818E-03    -57.5351E-03     56.1472E-03     331.961E-03     132.613E+06     131.842E+06     129.418E+06    -1.96189E+06    -1.95409E+06     129.410E+06     131.842E+06     973.580E+03
             105     21.3621E-03     16.9999E-03     12.9361E-03     132.476E-03    -57.7307E-03    -74.7454E-03    -70.0110E-03     127.742E-03    -57.7307E-03     61.5719E-03     337.601E-03     131.187E+06     130.745E+06     128.393E+06    -1.59794E+06    -1.58731E+06     128.382E+06     130.745E+06     1.09969E+06
             106     22.0703E-03     16.9987E-03     14.0763E-03     129.624E-03    -57.8665E-03    -71.7579E-03    -66.1497E-03     124.016E-03    -57.8665E-03     66.2699E-03     344.290E-03     131.755E+06     130.808E+06     128.208E+06    -2.22538E+06    -2.19254E+06     128.993E+06     129.990E+06     2.01995E+06
             107     22.8079E-03     16.9985E-03     15.2069E-03     125.620E-03    -57.9661E-03    -67.6543E-03    -62.1273E-03     120.093E-03    -57.9661E-03     64.4228E-03     348.061E-03     133.741E+06     129.389E+06     127.989E+06    -5.04656E+06    -5.01735E+06     129.360E+06     127.989E+06     680.362E+03
             108     23.5692E-03     17.0008E-03     16.3243E-03     122.566E-03    -57.9924E-03    -64.5739E-03    -59.6637E-03     117.656E-03    -57.9924E-03     59.7246E-03     350.842E-03     133.284E+06     130.010E+06     129.073E+06    -3.73940E+06    -3.72634E+06     129.997E+06     129.073E+06    -1.31278E+06
             109     24.3630E-03     16.9996E-03     17.4519E-03     121.451E-03    -58.0115E-03    -63.4397E-03    -58.7299E-03     116.741E-03    -58.0115E-03     58.2035E-03     350.995E-03     133.688E+06     133.808E+06     132.444E+06    -556.542E+03    -547.552E+03     133.799E+06     132.444E+06    -454.308E+03
             110     25.1872E-03     17.0009E-03     18.5840E-03     120.915E-03    -58.0449E-03    -62.8704E-03    -56.6572E-03     114.702E-03    -58.0449E-03     66.1437E-03     355.221E-03     133.963E+06     130.644E+06     128.493E+06    -4.38096E+06    -4.30316E+06     130.566E+06     128.493E+06    -1.99442E+06
             111     26.0236E-03     17.0010E-03     19.7027E-03     121.922E-03    -58.0087E-03    -63.9134E-03    -56.9194E-03     114.928E-03    -58.0087E-03     70.7021E-03     359.890E-03     133.001E+06     128.305E+06     126.835E+06    -5.42310E+06    -5.34364E+06     128.225E+06     126.835E+06    -1.83658E+06
             112     26.8892E-03     17.0014E-03     20.8322E-03     123.308E-03    -58.0181E-03    -65.2900E-03    -57.5478E-03     115.566E-03    -58.0181E-03     74.6533E-03     360.341E-03     134.504E+06     133.872E+06     130.681E+06    -2.18203E+06    -2.14054E+06     133.830E+06     130.681E+06     2.06507E+06
             113     27.7726E-03     16.9994E-03     21.9621E-03     123.108E-03    -58.1148E-03    -64.9928E-03    -56.3610E-03     114.476E-03    -58.1148E-03     78.7159E-03     360.090E-03     138.122E+06     136.452E+06     129.818E+06    -4.86610E+06    -4.82323E+06     136.409E+06     129.818E+06     2.18216E+06
             114     28.6599E-03     16.9988E-03     23.0744E-03     120.891E-03    -58.1660E-03    -62.7251E-03    -55.1011E-03     113.267E-03    -58.1660E-03     73.1786E-03     359.564E-03     137.830E+06     137.247E+06     129.081E+06    -4.48245E+06    -4.47823E+06     137.243E+06     129.081E+06     461.575E+03
             115     29.5647E-03     17.0004E-03     24.1880E-03     120.714E-03    -58.1044E-03    -62.6099E-03    -56.2583E-03     114.363E-03    -58.1044E-03     66.9849E-03     357.708E-03     137.783E+06     138.673E+06     129.864E+06    -3.30339E+06    -3.30189E+06     138.671E+06     129.864E+06     235.140E+03
             116     30.4957E-03     16.9994E-03     25.3181E-03     121.931E-03    -58.0571E-03    -63.8738E-03    -57.7759E-03     115.833E-03    -58.0571E-03     66.1951E-03     357.891E-03     139.122E+06     139.109E+06     129.133E+06    -4.72882E+06    -4.71041E+06     139.091E+06     129.133E+06    -784.141E+03
             117     31.4344E-03     16.9998E-03     26.4410E-03     121.692E-03    -58.0805E-03    -63.6111E-03    -56.9719E-03     115.052E-03    -58.0805E-03     68.8573E-03     360.289E-03     139.089E+06     140.152E+06     130.040E+06    -3.71366E+06    -3.69603E+06     140.134E+06     130.040E+06    -1.31453E+06
             118     32.3862E-03     17.0002E-03     27.5655E-03     121.906E-03    -58.1086E-03    -63.7977E-03    -56.4227E-03     114.531E-03    -58.1086E-03     72.5059E-03     359.802E-03     139.693E+06     141.584E+06     131.758E+06    -2.76158E+06    -2.70286E+06     141.525E+06     131.758E+06     1.83204E+06
             119     33.3504E-03     16.9989E-03     28.6930E-03     121.461E-03    -58.1326E-03    -63.3287E-03    -55.7823E-03     113.915E-03    -58.1326E-03     73.1403E-03     358.760E-03     140.219E+06     142.050E+06     130.245E+06    -3.69494E+06    -3.63536E+06     141.990E+06     130.245E+06     2.37562E+06
             120     34.3114E-03     17.0004E-03     29.8037E-03     120.219E-03    -58.1302E-03    -62.0890E-03    -55.1753E-03     113.306E-03    -58.1302E-03     69.6192E-03     358.531E-03      141.62E+06     141.997E+06     129.421E+06    -5.49055E+06    -5.48665E+06     141.994E+06     129.421E+06    -90.2765E+03
             121     35.2934E-03     16.9997E-03     30.9295E-03     120.685E-03    -58.1210E-03    -62.5639E-03    -55.6663E-03     113.787E-03    -58.1210E-03     69.7338E-03     358.412E-03     142.091E+06     144.284E+06     132.249E+06    -3.44151E+06    -3.43323E+06     144.276E+06     132.249E+06     236.810E+03
             122     36.2840E-03     16.9999E-03     32.0552E-03     120.456E-03    -58.1401E-03    -62.3159E-03    -54.8320E-03     112.972E-03    -58.1401E-03     72.4237E-03     358.711E-03     141.795E+06     145.115E+06     132.825E+06    -2.42487E+06    -2.41305E+06     145.104E+06     132.825E+06    -2.75988E+03
             123     37.2726E-03     17.0008E-03     33.1696E-03     120.012E-03    -58.1432E-03    -61.8690E-03    -54.4041E-03     112.547E-03    -58.1432E-03     72.1533E-03     359.868E-03     140.619E+06     142.307E+06     130.734E+06    -3.73843E+06    -3.73248E+06     142.301E+06     130.734E+06    -681.855E+03
             124     38.2765E-03     16.9991E-03     34.2946E-03     121.327E-03    -58.1213E-03    -63.2056E-03    -55.5629E-03     113.684E-03    -58.1213E-03     73.5163E-03     360.471E-03     140.555E+06     141.078E+06     129.652E+06    -4.83960E+06    -4.83861E+06     141.077E+06     129.652E+06    -289.967E+03
             125     39.2857E-03     17.0007E-03     35.4167E-03     122.114E-03    -58.1107E-03    -64.0028E-03    -55.8656E-03     113.976E-03    -58.1107E-03     76.1109E-03     359.927E-03     139.405E+06     140.948E+06     128.872E+06    -4.10245E+06    -4.09654E+06     140.942E+06     128.872E+06     324.129E+03
             126     40.3018E-03     16.9991E-03     36.5413E-03     123.117E-03    -58.1084E-03    -65.0083E-03    -56.9221E-03     115.030E-03    -58.1084E-03     76.3027E-03     361.547E-03     138.991E+06     140.392E+06     128.889E+06    -3.99212E+06    -3.97686E+06     140.377E+06     128.889E+06    -273.852E+03
             127     41.3176E-03     16.9989E-03     37.6588E-03     122.507E-03    -58.0830E-03    -64.4240E-03    -57.7315E-03     115.815E-03    -58.0830E-03     69.1853E-03     360.364E-03     138.911E+06     138.714E+06     128.488E+06    -5.02517E+06    -5.01468E+06     138.703E+06     128.488E+06    -766.415E+03
             128     42.3397E-03     17.0009E-03     38.7766E-03     120.042E-03    -58.0774E-03    -61.9647E-03    -56.3177E-03     114.395E-03    -58.0774E-03     63.0969E-03     357.588E-03     138.361E+06     139.716E+06     129.635E+06    -3.40811E+06    -3.40636E+06     139.714E+06     129.635E+06     440.564E+03
             129     43.3754E-03     17.0001E-03     39.9052E-03     119.533E-03    -58.0918E-03    -61.4413E-03    -55.2896E-03     113.381E-03    -58.0918E-03     65.5717E-03     357.188E-03     139.315E+06     140.991E+06     130.163E+06    -3.42169E+06    -3.41601E+06     140.985E+06     130.163E+06    -203.173E+03
             130     44.4061E-03     17.0009E-03     41.0228E-03     119.915E-03    -58.0846E-03    -61.8305E-03    -55.3137E-03     113.398E-03    -58.0846E-03     67.5843E-03     357.852E-03     138.475E+06     139.827E+06     130.397E+06    -3.11713E+06    -3.07704E+06     139.787E+06     130.397E+06    -2.13761E+06
             131     45.4473E-03     17.0008E-03     42.1477E-03     121.663E-03    -58.0646E-03    -63.5982E-03    -56.3867E-03     114.451E-03    -58.0646E-03     71.6217E-03     360.216E-03     137.995E+06     139.371E+06     130.164E+06    -2.99377E+06    -2.93761E+06     139.315E+06     130.164E+06    -393.241E+03
             132     46.4967E-03     16.9997E-03     43.2776E-03     122.600E-03    -58.0927E-03    -64.5070E-03    -56.4529E-03     114.546E-03    -58.0927E-03     75.9367E-03     360.494E-03     139.054E+06     139.204E+06     129.611E+06    -4.39583E+06    -4.36471E+06     139.173E+06     129.611E+06     2.08993E+06
             133     47.5389E-03     17.0002E-03     44.3952E-03     121.037E-03    -58.1384E-03    -62.8988E-03    -54.9716E-03     113.110E-03    -58.1384E-03     74.6939E-03     359.692E-03     139.316E+06     138.892E+06     129.911E+06    -4.69744E+06    -4.68407E+06     138.879E+06     129.911E+06     1.30248E+06
             134     48.5826E-03     17.0001E-03     45.5111E-03     119.675E-03    -58.1282E-03    -61.5469E-03    -54.3020E-03     112.430E-03    -58.1282E-03     70.9900E-03     358.872E-03     138.156E+06     139.527E+06     130.234E+06    -3.04086E+06    -3.03781E+06     139.524E+06     130.234E+06     199.726E+03
             135     49.6359E-03     17.0015E-03     46.6334E-03     120.663E-03    -58.0872E-03    -62.5755E-03    -55.5140E-03     113.601E-03    -58.0872E-03     70.5429E-03     358.777E-03     137.818E+06     138.954E+06     130.083E+06     -3.0839E+06    -3.07972E+06     138.950E+06     130.083E+06    -715.760E+03
             136     50.6904E-03     16.9994E-03     47.7550E-03     121.787E-03    -58.0690E-03    -63.7178E-03    -56.7323E-03     114.801E-03    -58.0690E-03     70.6195E-03     358.271E-03     137.671E+06     137.817E+06     128.780E+06    -4.14834E+06    -4.14395E+06     137.813E+06     128.780E+06    -748.558E+03
             137     51.7533E-03     17.0010E-03     48.8812E-03     121.932E-03    -58.0641E-03    -63.8682E-03    -56.7317E-03     114.796E-03    -58.0641E-03     71.3940E-03     359.433E-03     135.298E+06     135.404E+06     127.239E+06    -3.78506E+06    -3.76623E+06     135.385E+06     127.239E+06    -1.35545E+06
             138     52.8095E-03     16.9999E-03     49.9985E-03     122.632E-03    -58.0505E-03    -64.5816E-03    -57.5158E-03     115.566E-03    -58.0505E-03     71.3150E-03     361.205E-03     135.661E+06     133.769E+06     127.601E+06    -4.86986E+06    -4.85173E+06     133.751E+06     127.601E+06    -1.21785E+06
             139     53.8828E-03     17.0003E-03     51.1307E-03     121.972E-03    -58.0952E-03    -63.8765E-03    -56.7072E-03     114.802E-03    -58.0952E-03     71.5112E-03     360.433E-03     135.292E+06     134.991E+06     129.175E+06    -3.11480E+06    -3.11206E+06     134.989E+06     129.175E+06     307.497E+03
             140     54.9427E-03     16.9996E-03     52.2467E-03     120.175E-03    -58.1576E-03    -62.0177E-03    -54.8489E-03     113.007E-03    -58.1576E-03     70.8022E-03     359.654E-03     134.965E+06     134.981E+06     129.423E+06    -2.67696E+06    -2.67193E+06     134.976E+06     129.423E+06       2.615E+03
             141     56.0068E-03     17.0001E-03     53.3644E-03     120.843E-03    -58.1403E-03    -62.7026E-03    -55.5722E-03     113.712E-03    -58.1403E-03     70.9064E-03     359.708E-03     135.911E+06     134.316E+06     129.402E+06    -3.98503E+06    -3.97852E+06     134.310E+06     129.402E+06    -941.224E+03
             142     57.0848E-03     16.9998E-03     54.4948E-03     122.756E-03    -58.1052E-03    -64.6504E-03    -56.9129E-03     115.018E-03    -58.1052E-03     74.5695E-03     360.173E-03     133.713E+06     132.893E+06     129.053E+06    -2.69778E+06    -2.69218E+06     132.887E+06     129.053E+06    -204.004E+03
             143     58.1561E-03     16.9998E-03     55.6160E-03     122.362E-03    -58.1109E-03    -64.2513E-03    -56.3782E-03     114.489E-03    -58.1109E-03     75.0247E-03     359.854E-03     134.086E+06     131.764E+06     128.389E+06    -3.97778E+06    -3.97020E+06     131.757E+06     128.389E+06     966.192E+03
             144     59.2277E-03     17.0008E-03     56.7353E-03     121.269E-03    -58.0957E-03    -63.1734E-03    -55.9328E-03     114.028E-03    -58.0957E-03     71.5639E-03     359.698E-03     134.429E+06     130.837E+06     126.727E+06    -5.59884E+06    -5.56584E+06     130.804E+06     126.727E+06    -708.386E+03
             145     60.3002E-03     17.0002E-03     57.8542E-03     120.556E-03    -58.0892E-03    -62.4672E-03    -56.0038E-03     114.093E-03    -58.0892E-03     67.5613E-03     359.437E-03     132.559E+06     131.516E+06     129.028E+06    -2.25633E+06    -2.22433E+06     131.306E+06     129.206E+06    -776.426E+03
             146     61.3795E-03     17.0010E-03     58.9780E-03     120.628E-03    -58.1061E-03    -62.5221E-03    -55.7578E-03     113.864E-03    -58.1061E-03     69.0537E-03     358.173E-03     132.707E+06     131.379E+06     130.513E+06    -1.75773E+06    -1.74887E+06     131.193E+06     130.691E+06     1.08242E+06
             147     62.4605E-03     16.9999E-03     60.1025E-03     121.086E-03    -58.0979E-03    -62.9877E-03    -55.7595E-03     113.857E-03    -58.0979E-03     71.5054E-03     358.092E-03     133.116E+06     129.809E+06     127.439E+06    -4.47298E+06    -4.46432E+06     129.801E+06     127.439E+06     1.07677E+06
             148     63.5382E-03     17.0012E-03     61.2214E-03     120.756E-03    -58.0840E-03    -62.6724E-03    -55.7778E-03     113.862E-03    -58.0840E-03     69.7495E-03     359.784E-03     134.957E+06     131.310E+06     126.594E+06    -5.93844E+06    -5.93347E+06     131.305E+06     126.594E+06     665.628E+03
             149     65.7052E-03     17.0014E-03     63.4675E-03     120.201E-03    -58.0921E-03    -62.1086E-03    -54.8317E-03     112.924E-03    -58.0921E-03     71.3575E-03     358.674E-03     136.043E+06     136.756E+06     129.626E+06    -2.70992E+06    -2.69766E+06     136.744E+06     129.626E+06    -314.784E+03
             150     66.7850E-03     17.0012E-03     64.5848E-03     121.664E-03    -58.0526E-03    -63.6117E-03    -56.0647E-03     114.117E-03    -58.0526E-03     73.2422E-03     360.226E-03     136.608E+06     135.972E+06     128.402E+06    -4.26337E+06    -4.25418E+06     135.963E+06     128.402E+06    -673.558E+03
             151     67.8760E-03     17.0006E-03     65.7125E-03     122.461E-03    -58.0536E-03    -64.4073E-03    -56.5545E-03     114.608E-03    -58.0536E-03     74.9569E-03     360.462E-03     137.013E+06     136.852E+06     129.992E+06    -3.46204E+06    -3.44743E+06     136.837E+06     129.992E+06     1.12186E+06
             152     68.9657E-03     17.0015E-03     66.8373E-03     121.743E-03    -58.0883E-03    -63.6542E-03    -55.5394E-03     113.628E-03    -58.0883E-03     75.8561E-03     361.197E-03     136.637E+06     137.520E+06     130.536E+06    -2.47475E+06    -2.43909E+06     137.484E+06     130.536E+06    -217.127E+03
             153     70.0421E-03     17.0000E-03     67.9478E-03     121.528E-03    -58.0759E-03    -63.4523E-03    -56.3162E-03     114.392E-03    -58.0759E-03     71.1090E-03     360.479E-03     136.399E+06     135.490E+06     129.293E+06    -3.89753E+06    -3.87616E+06     135.469E+06     129.293E+06    -1.12526E+06
             154     71.1384E-03     17.0012E-03     69.0769E-03     121.523E-03    -58.0899E-03    -63.4331E-03    -56.2307E-03     114.321E-03    -58.0899E-03     71.3997E-03     358.828E-03     133.904E+06     133.907E+06     129.609E+06    -2.09364E+06    -2.09345E+06     133.907E+06     129.609E+06     33.1600E+03
             155     72.2305E-03     16.9997E-03     70.2016E-03     122.299E-03    -58.1216E-03    -64.1770E-03    -55.9465E-03     114.068E-03    -58.1216E-03     76.6039E-03     360.501E-03     134.014E+06     133.389E+06     128.263E+06    -3.11047E+06    -3.10524E+06     133.383E+06     128.263E+06     538.840E+03
             156     73.3187E-03     16.9999E-03     71.3206E-03     122.971E-03    -58.0969E-03    -64.8744E-03    -57.0940E-03     115.191E-03    -58.0969E-03     74.8091E-03     360.539E-03     137.025E+06     135.500E+06     127.135E+06    -5.50698E+06    -5.50150E+06     135.495E+06     127.135E+06     748.541E+03
             157     74.4096E-03     17.0001E-03     72.4416E-03     121.874E-03    -58.0868E-03    -63.7875E-03    -57.0377E-03     115.124E-03    -58.0868E-03     69.4675E-03     358.766E-03     138.051E+06     137.791E+06     128.141E+06    -4.83078E+06    -4.82433E+06     137.785E+06     128.141E+06     809.956E+03
             158     75.5031E-03     17.0002E-03     73.5644E-03     119.933E-03    -58.1288E-03    -61.8037E-03    -54.8651E-03     112.994E-03    -58.1288E-03     69.5445E-03     358.866E-03     137.130E+06     137.419E+06     128.130E+06    -4.11870E+06    -4.11206E+06     137.413E+06     128.130E+06     847.450E+03
             159     76.5974E-03     17.0012E-03     74.6869E-03     120.306E-03    -58.1534E-03    -62.1523E-03    -54.0905E-03     112.244E-03    -58.1534E-03     74.9737E-03     360.536E-03     137.787E+06     139.786E+06     130.395E+06    -2.45654E+06    -2.45079E+06     139.780E+06     130.395E+06     800.564E+03
             160     77.6921E-03     16.9996E-03     75.8095E-03     121.114E-03    -58.1197E-03    -62.9947E-03    -55.0421E-03     113.162E-03    -58.1197E-03     74.8128E-03     359.492E-03     138.309E+06     140.049E+06     129.737E+06    -3.12405E+06    -3.11612E+06     140.041E+06     129.737E+06     179.124E+03
             161     78.7787E-03     17.0020E-03     76.9222E-03     120.728E-03    -58.0544E-03    -62.6736E-03    -55.8039E-03     113.858E-03    -58.0544E-03     69.5924E-03     358.891E-03     138.380E+06     138.990E+06     127.719E+06    -4.68054E+06    -4.67334E+06     138.983E+06     127.719E+06    -1.00953E+06
             162     79.8771E-03     17.0010E-03     78.0469E-03     121.073E-03    -58.0071E-03    -63.0664E-03    -56.4390E-03     114.446E-03    -58.0071E-03     68.5843E-03     358.499E-03     138.183E+06     139.061E+06     127.667E+06    -4.46578E+06    -4.45056E+06     139.046E+06     127.667E+06    -1.44444E+06
             163     80.9787E-03     17.0025E-03     79.1737E-03     122.075E-03    -58.0126E-03    -64.0621E-03    -56.8032E-03     114.816E-03    -58.0126E-03     72.0517E-03     357.917E-03     138.158E+06     139.089E+06     127.287E+06    -4.59190E+06    -4.58120E+06     139.078E+06     127.287E+06    -865.213E+03
             164     82.0755E-03     16.9995E-03     80.2957E-03     121.701E-03    -58.0630E-03    -63.6375E-03    -56.1930E-03     114.256E-03    -58.0630E-03     72.7816E-03     357.896E-03     137.189E+06     139.890E+06     129.538E+06    -2.17527E+06    -2.17501E+06     139.890E+06     129.538E+06    -127.469E+03
             165     83.1733E-03     17.0023E-03     81.4170E-03     121.142E-03    -58.0664E-03    -63.0753E-03    -55.8907E-03     113.957E-03    -58.0664E-03     71.3243E-03     358.767E-03     136.029E+06     138.070E+06     128.714E+06    -2.39455E+06    -2.39237E+06     138.068E+06     128.714E+06     237.179E+03
             166     84.2658E-03     16.9999E-03     82.5332E-03     121.517E-03    -58.0499E-03    -63.4671E-03    -56.5681E-03     114.618E-03    -58.0499E-03     70.0970E-03     358.083E-03     138.897E+06     141.699E+06     130.317E+06    -2.53491E+06    -2.48140E+06     141.645E+06     130.317E+06     2.31214E+06
             167     85.3779E-03     17.0019E-03     83.6679E-03     120.957E-03    -58.0930E-03    -62.8641E-03    -55.4458E-03     113.539E-03    -58.0930E-03     72.2500E-03     357.168E-03     139.832E+06     144.450E+06     129.759E+06    -2.13653E+06    -2.08484E+06     144.398E+06     129.759E+06     1.85115E+06
             168     86.4655E-03     16.9993E-03     84.7780E-03     120.865E-03    -58.1182E-03    -62.7466E-03    -55.1848E-03     113.303E-03    -58.1182E-03     72.9109E-03     360.687E-03     144.247E+06     147.108E+06     128.245E+06    -5.63570E+06    -5.61096E+06     147.083E+06     128.245E+06     1.30677E+06
             169     87.5708E-03     17.0009E-03     85.9047E-03     120.970E-03    -58.1162E-03    -62.8542E-03    -55.5381E-03     113.654E-03    -58.1162E-03     71.8499E-03     361.127E-03     149.325E+06     154.386E+06     132.108E+06    -4.82242E+06    -4.79519E+06     154.359E+06     132.108E+06     1.85373E+06
             170     88.6712E-03     17.0002E-03     87.0263E-03     120.985E-03    -58.1085E-03    -62.8762E-03    -55.1745E-03     113.283E-03    -58.1085E-03     73.6669E-03     359.507E-03     149.992E+06     158.165E+06     134.074E+06    -2.41396E+06    -2.40257E+06     158.153E+06     134.074E+06     1.29810E+06
             171     89.7691E-03     17.0014E-03     88.1444E-03     121.902E-03    -58.0532E-03    -63.8485E-03    -56.5459E-03     114.599E-03    -58.0532E-03     72.1485E-03     359.139E-03     153.251E+06     159.488E+06     133.351E+06    -5.14769E+06    -5.12402E+06     159.465E+06     133.351E+06     -276.41E+03
             172     90.8737E-03     17.0006E-03     89.2693E-03     122.608E-03    -58.0402E-03    -64.5679E-03    -57.1252E-03     115.165E-03    -58.0402E-03     73.0841E-03     359.322E-03     154.485E+06     161.484E+06     135.490E+06    -4.34506E+06    -4.32775E+06     161.466E+06     135.490E+06    -671.774E+03
             173     91.9850E-03     17.0014E-03     90.4002E-03     122.424E-03    -58.0911E-03    -64.3327E-03    -55.8682E-03     113.959E-03    -58.0911E-03     77.6672E-03     359.927E-03     153.574E+06     161.680E+06     136.540E+06    -2.91197E+06    -2.90492E+06     161.673E+06     136.540E+06     1.06428E+06
             174     93.0799E-03     17.0002E-03     91.5142E-03     121.453E-03    -58.1006E-03    -63.3527E-03    -55.5691E-03     113.670E-03    -58.1006E-03     74.0594E-03     360.082E-03     154.569E+06     160.561E+06     134.992E+06    -5.19839E+06    -5.19170E+06     160.554E+06     134.992E+06     202.969E+03
             175     94.1777E-03     17.0014E-03     92.6304E-03     120.339E-03    -58.0751E-03    -62.2638E-03    -55.7123E-03     113.787E-03    -58.0751E-03     67.9213E-03     359.270E-03     155.255E+06     162.894E+06     137.463E+06    -3.50652E+06    -3.50007E+06     162.887E+06     137.463E+06     188.434E+03
             176     95.2867E-03     17.0018E-03     93.7576E-03     119.151E-03    -58.0638E-03    -61.0875E-03    -54.2287E-03     112.293E-03    -58.0638E-03     68.9184E-03     357.462E-03     157.449E+06     164.955E+06     137.074E+06    -4.56263E+06    -4.55524E+06     164.947E+06     137.074E+06     1.11409E+06
             177     96.3869E-03     17.0032E-03     94.8753E-03     118.936E-03    -58.0483E-03    -60.8878E-03    -53.1835E-03     111.232E-03    -58.0483E-03     72.8095E-03     357.683E-03     159.154E+06     168.291E+06     138.436E+06    -3.67581E+06    -3.67227E+06     168.287E+06     138.436E+06     721.903E+03
             178     97.4913E-03     17.0032E-03     95.9971E-03     119.449E-03    -57.9848E-03    -61.4639E-03    -53.3970E-03     111.382E-03    -57.9848E-03     74.6809E-03     357.915E-03     162.137E+06     172.749E+06     140.544E+06    -3.06294E+06    -3.03686E+06     172.723E+06     140.544E+06     1.72780E+06
             179     98.5928E-03     17.0059E-03     97.1150E-03     119.437E-03    -57.8730E-03    -61.5639E-03    -53.3947E-03     111.268E-03    -57.8730E-03     75.1476E-03     356.449E-03     165.953E+06     174.808E+06     139.690E+06    -5.89398E+06    -5.84851E+06     174.762E+06     139.690E+06     172.548E+03
             180     99.6945E-03     17.0078E-03     98.2330E-03     118.665E-03    -57.7341E-03    -60.9312E-03    -53.1427E-03     110.877E-03    -57.7341E-03     73.1269E-03     353.943E-03     162.152E+06     174.155E+06     139.524E+06    -2.51444E+06    -2.49331E+06     174.133E+06     139.524E+06    -1.02010E+06
             181     100.796E-03     17.0106E-03     99.3501E-03     117.281E-03    -57.5561E-03    -59.7253E-03    -52.3183E-03     109.874E-03    -57.5561E-03     70.8805E-03     352.301E-03     158.188E+06     170.943E+06     136.855E+06    -1.51028E+06    -1.50846E+06     170.941E+06     136.855E+06     550.913E+03
             182     101.894E-03     17.0156E-03     100.463E-03     116.500E-03    -57.2845E-03    -59.2152E-03    -51.6339E-03     108.918E-03    -57.2845E-03     71.4048E-03     352.839E-03     159.824E+06     168.627E+06     132.432E+06    -6.18367E+06    -6.18214E+06     168.625E+06     132.432E+06    -59.7427E+03
             183     103.002E-03     17.0212E-03     101.585E-03     117.089E-03    -56.8938E-03    -60.1953E-03    -51.1288E-03     108.023E-03    -56.8938E-03     77.8610E-03     354.017E-03     155.824E+06     167.689E+06     127.300E+06    -4.31881E+06    -4.31027E+06     167.681E+06     127.300E+06    -1.08528E+06
             184     104.106E-03     17.0303E-03     102.704E-03     117.232E-03    -56.3579E-03    -60.8743E-03    -50.4763E-03     106.834E-03    -56.3579E-03     83.5181E-03     353.394E-03     149.279E+06     162.685E+06     119.663E+06    -3.37862E+06    -3.37097E+06     162.678E+06     119.663E+06    -857.404E+03
             185     105.200E-03     17.0414E-03     103.810E-03     114.466E-03    -55.5327E-03    -58.9332E-03    -49.6950E-03     105.228E-03    -55.5327E-03     77.7949E-03     350.638E-03     139.660E+06     155.126E+06     107.045E+06    -2.04555E+06    -2.04268E+06     155.124E+06     107.045E+06    -519.321E+03
             186     106.287E-03     17.0621E-03     104.908E-03     114.662E-03    -54.3577E-03    -60.3041E-03    -52.8373E-03     107.195E-03    -54.3577E-03     70.5717E-03     351.801E-03     136.485E+06     150.195E+06     99.5005E+06    -4.33182E+06    -4.28294E+06     150.146E+06     99.5005E+06    -2.37567E+06
             187     107.399E-03     17.0789E-03     106.032E-03     118.929E-03    -53.0809E-03    -65.8481E-03    -59.3250E-03     112.406E-03    -53.0809E-03     68.1683E-03     357.762E-03     136.776E+06     152.578E+06     98.5393E+06    -2.78505E+06    -2.64060E+06     152.433E+06     98.5393E+06     810.941E+03
             188     108.519E-03     17.0964E-03     107.163E-03     124.706E-03    -52.0701E-03    -72.6354E-03    -66.4724E-03     118.543E-03    -52.0701E-03     68.6127E-03     368.508E-03     138.351E+06     152.525E+06     105.382E+06    -2.57892E+06    -2.38740E+06     152.334E+06     105.382E+06     7.94825E+03
             189     109.631E-03     17.1011E-03     108.289E-03     135.074E-03    -51.3817E-03    -83.6928E-03    -79.0610E-03     130.443E-03    -51.3817E-03     61.8951E-03     380.032E-03     142.151E+06     145.023E+06     121.882E+06    -6.93341E+06    -6.75794E+06     144.847E+06     121.882E+06    -5.16061E+06
             190     110.771E-03     17.1037E-03     109.443E-03     146.771E-03    -50.9017E-03    -95.8695E-03    -92.8402E-03     143.742E-03    -50.9017E-03     53.7928E-03     386.239E-03     133.727E+06     136.256E+06     130.362E+06    -241.401E+03    -124.329E+03     136.139E+06     130.362E+06    -3.93230E+06
             191     111.917E-03     17.1042E-03     110.602E-03     157.431E-03    -50.5431E-03    -106.888E-03    -104.217E-03     154.760E-03    -50.5431E-03     52.8170E-03     389.881E-03     124.103E+06     127.998E+06     122.049E+06     1.12948E+06     1.24029E+06     122.099E+06     127.837E+06    -3.57288E+06
             192     113.085E-03     17.1051E-03     111.784E-03     171.330E-03    -50.1040E-03    -121.226E-03    -118.639E-03     168.743E-03    -50.1040E-03     54.7720E-03     394.586E-03     111.641E+06     113.523E+06     96.8653E+06    -5.36947E+06    -4.29151E+06     95.7874E+06     113.523E+06    -8.73392E+06
             193     114.260E-03     17.1051E-03     112.973E-03     186.533E-03    -49.6482E-03    -136.885E-03    -134.762E-03     184.410E-03    -49.6482E-03     51.6706E-03     393.230E-03     101.989E+06     107.984E+06     78.5890E+06    -5.21944E+06    -4.10704E+06     77.4766E+06     107.984E+06    -4.58716E+06
             194     115.465E-03     17.1065E-03     114.191E-03     199.866E-03    -49.2467E-03    -150.619E-03    -148.990E-03     198.236E-03    -49.2467E-03     47.6788E-03     384.378E-03     102.265E+06     107.490E+06     69.6268E+06    -8.30655E+06    -6.69733E+06     68.0175E+06     107.490E+06    -5.46101E+06
             195     116.670E-03     17.1071E-03     115.409E-03     218.884E-03    -48.6939E-03    -170.190E-03    -168.778E-03     217.472E-03    -48.6939E-03     46.4581E-03     374.243E-03     95.4698E+06     102.884E+06     46.5361E+06    -3.99424E+06    -2.48939E+06     45.0313E+06     102.884E+06    -7.78836E+06
             196     117.918E-03     17.1083E-03     116.670E-03     239.813E-03    -48.1487E-03    -191.664E-03    -190.609E-03     238.758E-03    -48.1487E-03     42.4980E-03     366.533E-03     101.731E+06     105.403E+06     28.0420E+06    -9.31887E+06    -9.22360E+06     27.9467E+06     105.403E+06    -1.78601E+06
             197     119.199E-03     17.1084E-03     117.965E-03     257.295E-03    -47.7588E-03    -209.536E-03    -207.513E-03     255.272E-03    -47.7588E-03     59.2116E-03     367.882E-03     117.801E+06     121.362E+06     25.5172E+06    -8.44044E+06    -926.817E+03     18.0036E+06     121.362E+06    -3.28784E+06
             198     120.505E-03     17.1116E-03     119.284E-03     278.233E-03    -47.2924E-03    -230.940E-03    -226.220E-03     273.512E-03    -47.2924E-03     96.4648E-03     386.801E-03     126.453E+06     136.093E+06     30.8945E+06    -2.98344E+06     6.34911E+06     21.5619E+06     136.093E+06     5.01960E+06
             199     121.869E-03     17.1117E-03     120.662E-03     289.889E-03    -47.1629E-03    -242.726E-03    -231.022E-03     278.185E-03    -47.1629E-03     151.543E-03     410.673E-03     137.335E+06     138.721E+06     33.3639E+06    -16.5487E+06    -12.8373E+06     29.6525E+06     138.721E+06     475.170E+03
             200     123.235E-03     17.1149E-03     122.041E-03     269.480E-03    -47.9197E-03    -221.560E-03    -192.133E-03     240.053E-03    -47.9197E-03     224.370E-03     399.397E-03     99.5493E+06     82.5347E+06     15.0670E+06    -29.8946E+06    -24.9653E+06     10.1377E+06     82.5347E+06    -13.8017E+06
             201     124.460E-03     17.1148E-03     123.277E-03     194.269E-03    -52.3377E-03    -141.932E-03    -95.0913E-03     147.429E-03    -52.3377E-03     224.657E-03     284.067E-03     57.6307E+06     21.0457E+06     1.00641E+06    -43.8344E+06    -21.2835E+06    -21.5445E+06     21.0457E+06     1.68233E+06
             202     125.450E-03     16.9450E-03     124.300E-03     89.8306E-03    -9.74505E-03    -80.0856E-03     4.27864E-03     62.3480E-03    -66.6266E-03     95.5128E-03     133.062E-03     69.8445E+06     29.4153E+06    -12.5494E+06    -48.3095E+06     14.8495E+06    -29.9647E+06    -16.3283E+06     17.1600E+06
             203     125.683E-03     15.5364E-03     124.719E-03     47.9870E-03     29.3085E-03    -77.2955E-03     33.6282E-03     43.6673E-03    -77.2955E-03     13.9669E-03     82.0947E-03     90.3482E+06     66.8002E+06     18.2043E+06    -33.9304E+06     12.5959E+06     17.4217E+06     21.0565E+06     18.1964E+06
             204     125.154E-03     14.5714E-03     124.302E-03     85.5652E-03    -9.35072E-03    -76.2144E-03    -3.51900E-03     79.7334E-03    -76.2144E-03    -17.7634E-03     120.879E-03     119.467E+06     103.660E+06     42.1490E+06    -32.0596E+06    -20.7379E+06     30.8273E+06     103.660E+06    -4.55053E+06
             205     124.598E-03     13.7501E-03     123.837E-03     114.604E-03    -42.2137E-03    -72.3905E-03    -36.1181E-03     108.509E-03    -72.3905E-03    -60.6216E-03     148.703E-03     125.404E+06     97.5224E+06     14.2428E+06    -46.7070E+06    -20.0744E+06    -12.3897E+06     97.5224E+06    -27.3622E+06
             206     124.127E-03     12.9087E-03     123.454E-03     118.343E-03    -50.5159E-03    -67.8269E-03    -43.7380E-03     111.565E-03    -67.8269E-03    -66.2799E-03     143.595E-03     112.765E+06     91.8260E+06     3.78866E+06    -33.8546E+06    -11.8054E+06    -18.2606E+06     91.8260E+06    -17.7898E+06
             207     123.722E-03     12.0420E-03     123.135E-03     130.938E-03    -59.3215E-03    -71.6166E-03    -59.1267E-03     122.724E-03    -63.5969E-03    -79.0263E-03     150.425E-03     112.534E+06     103.601E+06     4.97165E+06    -18.9354E+06    -5.36049E+06    -8.60323E+06     103.601E+06    -11.0017E+06
             208     123.379E-03     11.1775E-03     122.871E-03     141.686E-03    -58.8127E-03    -82.8730E-03    -74.1353E-03     132.948E-03    -58.8127E-03    -86.8036E-03     156.967E-03     106.368E+06     105.179E+06     16.7090E+06    -12.7447E+06     9.87930E+06    -5.91501E+06     105.179E+06    -12.3818E+06
             209     123.083E-03     10.3189E-03     122.649E-03     139.409E-03    -53.7260E-03    -85.6827E-03    -78.7817E-03     132.508E-03    -53.7260E-03    -77.1948E-03     150.883E-03     102.933E+06     105.285E+06     27.7000E+06    -11.2724E+06     24.0177E+06    -7.59000E+06     105.285E+06    -9.40868E+06
             210     122.837E-03     9.44281E-03     122.473E-03     128.151E-03    -48.9932E-03    -79.1578E-03    -74.9437E-03     123.937E-03    -48.9932E-03    -58.1694E-03     135.993E-03     98.4318E+06     106.194E+06     34.9305E+06    -6.08769E+06     34.5653E+06    -5.72253E+06     106.194E+06    -2.58575E+06
             211     122.632E-03     8.54252E-03     122.334E-03     116.810E-03    -44.7840E-03    -72.0262E-03    -69.4272E-03     114.211E-03    -44.7840E-03    -43.8543E-03     122.002E-03     93.1286E+06     104.534E+06     38.2811E+06    -1.86457E+06     38.2487E+06    -1.83220E+06     104.534E+06     1.04610E+06
             212     122.463E-03     7.63080E-03     122.225E-03     105.820E-03    -40.9569E-03    -64.8627E-03    -63.2070E-03     104.164E-03    -40.9569E-03    -33.2976E-03     109.172E-03     86.6122E+06     99.5476E+06     36.9461E+06     863.789E+03     36.8119E+06     998.011E+03     99.5476E+06    -430.555E+03
             213     122.321E-03     6.70565E-03     122.137E-03     94.3473E-03    -37.5067E-03    -56.8405E-03    -55.7968E-03     93.3035E-03    -37.5067E-03    -24.9838E-03     96.3715E-03     81.4018E+06     93.2733E+06     36.7951E+06     354.159E+03     36.4163E+06     733.001E+03     93.2733E+06    -3.66843E+06
             214     122.208E-03     5.76832E-03     122.071E-03     83.8483E-03    -34.4448E-03    -49.4034E-03    -48.7288E-03     83.1737E-03    -34.4448E-03    -18.8277E-03     85.0145E-03     71.7271E+06     81.5652E+06     39.0176E+06    -1.22261E+06     38.5867E+06    -791.659E+03     81.5652E+06    -4.12635E+06
             215     122.116E-03     4.82317E-03     122.021E-03     74.1620E-03    -31.8091E-03    -42.3529E-03    -41.9658E-03     73.7749E-03    -31.8091E-03    -13.3123E-03     74.7619E-03     57.1659E+06     67.2028E+06     41.6582E+06     2.16208E+06     41.3312E+06     2.48902E+06     67.2028E+06    -3.57754E+06
             216     122.044E-03     3.86800E-03     121.982E-03     65.7492E-03    -29.7829E-03    -35.9663E-03    -35.7468E-03     65.5297E-03    -29.7829E-03    -9.41142E-03     65.9924E-03     58.5955E+06     61.6709E+06     48.9679E+06    -2.06878E+06     48.3606E+06    -1.46149E+06     61.6709E+06    -5.47230E+06
             217     121.991E-03     2.90462E-03     121.956E-03     60.1615E-03    -28.3272E-03    -31.8343E-03    -31.6906E-03     60.0178E-03    -28.3272E-03    -7.24341E-03     60.2545E-03     66.0646E+06     67.5054E+06     60.4956E+06    -1.75668E+06     59.4968E+06    -757.875E+03     67.5054E+06    -7.81600E+06
             218     121.952E-03     1.93845E-03     121.937E-03     56.1390E-03    -27.2745E-03    -28.8645E-03    -28.7845E-03     56.0590E-03    -27.2745E-03    -5.09553E-03     56.1774E-03     72.9413E+06     71.3517E+06     67.0912E+06    -3.62091E+06     67.9609E+06    -2.73111E+06     69.5922E+06    -7.84564E+06
             219     121.929E-03     970.550E-06     121.925E-03     53.7634E-03    -26.3561E-03    -27.4072E-03    -27.3728E-03     53.7289E-03    -26.3561E-03    -3.31037E-03     53.7832E-03     80.7503E+06     81.8563E+06     78.4729E+06    -532.255E+03     79.7240E+06    -23.8603E+03     80.0968E+06    -6.30964E+06
             220     120.869E-03     184.475E-09     120.869E-03     45.2472E-03    -22.0296E-03    -23.2176E-03    -22.8040E-03     45.2299E-03    -22.4259E-03    -2.15385E-03     45.2783E-03     63.3704E+06     54.0762E+06     51.5721E+06    -10.5091E+06     50.4542E+06    -9.39114E+06     54.0762E+06    -7.06205E+06
             221     119.830E-03    -959.028E-09     119.830E-03     30.2883E-03    -14.9349E-03    -15.3534E-03    -14.9235E-03     30.2770E-03    -15.3534E-03    -1.41180E-03     30.3300E-03     26.8402E+06    -10.4293E+06    -15.7308E+06    -38.2311E+06    -13.1187E+06    -35.0959E+06    -16.1766E+06    -6.11599E+06
             222     118.809E-03     830.163E-09     118.809E-03     18.7403E-03    -9.30552E-03    -9.43474E-03    -9.39996E-03     18.7277E-03    -9.32774E-03    -1.18041E-03     18.7743E-03     17.6765E+06    -47.8311E+06    -61.1572E+06    -67.8228E+06    -62.0726E+06    -52.2554E+06    -62.4832E+06    -5.17635E+06
             223     117.794E-03    -576.681E-09     117.794E-03     11.0360E-03    -5.41082E-03    -5.62522E-03    -5.50449E-03     11.0227E-03    -5.51822E-03    -923.947E-06     11.0663E-03     39.3099E+06    -68.5480E+06    -102.368E+06    -111.223E+06    -105.921E+06    -70.3349E+06    -105.883E+06    -8.09949E+06
             224     116.787E-03     283.606E-09     116.787E-03     6.37805E-03    -3.11107E-03    -3.26698E-03    -3.15244E-03     6.37091E-03    -3.21847E-03    -400.272E-06     6.39965E-03     64.0204E+06    -94.8908E+06    -155.004E+06    -162.198E+06    -157.589E+06    -95.9849E+06    -158.519E+06    -7.32809E+06
             225     115.781E-03    -143.480E-09     115.781E-03     3.63983E-03    -1.76447E-03    -1.87536E-03    -1.80870E-03     3.63556E-03    -1.82686E-03     188.796E-06     3.65301E-03     96.2248E+06    -110.510E+06    -202.266E+06    -210.648E+06    -205.762E+06    -110.694E+06    -206.968E+06    -3.08673E+06
             226     114.780E-03    -55.2447E-09     114.780E-03     2.45567E-03    -1.19538E-03    -1.26029E-03    -1.18147E-03     2.43924E-03    -1.25777E-03     472.454E-06     2.46463E-03     107.692E+06    -90.8573E+06    -195.797E+06    -201.018E+06    -191.509E+06    -95.1450E+06    -201.018E+06     13.3047E+06
             227     113.776E-03    -32.2662E-09     113.776E-03     3.92279E-03    -1.92342E-03    -1.99937E-03    -1.97097E-03     3.89438E-03    -1.92342E-03     811.341E-06     3.93291E-03     102.838E+06    -34.0039E+06    -132.095E+06    -140.680E+06    -133.538E+06    -40.6263E+06    -132.614E+06     25.1298E+06
             228     112.773E-03     222.615E-09     112.773E-03     9.02825E-03    -4.46081E-03    -4.56744E-03    -4.48089E-03     8.97489E-03    -4.49400E-03     1.69796E-03     9.03988E-03     100.716E+06     19.6428E+06    -75.8422E+06    -85.3655E+06     -82.937E+06     17.2143E+06    -75.8422E+06     13.4503E+06
             229     111.757E-03    -342.392E-09     111.757E-03     18.5118E-03    -9.06916E-03    -9.44266E-03    -9.31899E-03     18.4213E-03    -9.10235E-03     3.16476E-03     18.5220E-03     66.3666E+06     43.0880E+06    -22.5318E+06    -23.9910E+06    -23.8704E+06     42.9674E+06    -22.5318E+06     2.83801E+06
             230     110.734E-03     913.952E-09     110.734E-03     31.6044E-03    -15.6256E-03    -15.9789E-03    -15.8865E-03     31.5121E-03    -15.6256E-03     4.11304E-03     31.6213E-03     22.8320E+06     51.1354E+06     30.7990E+06     28.0879E+06     29.6364E+06     49.0960E+06     31.2899E+06    -572.420E+03
             231     109.694E-03    -932.881E-09     109.694E-03     46.5646E-03    -23.1522E-03    -23.4124E-03    -23.3439E-03     46.4962E-03    -23.1522E-03     4.32351E-03     46.5963E-03     19.9700E+06     55.7975E+06     53.7235E+06     34.8764E+06     53.7468E+06     36.4361E+06     54.2145E+06    -3.87252E+06
             232     108.638E-03     1.34763E-06     108.638E-03     62.0378E-03    -30.8681E-03    -31.1697E-03    -31.1043E-03     61.9723E-03    -30.8681E-03     4.93801E-03     62.0932E-03     49.6634E+06     66.2613E+06     63.8680E+06     15.4642E+06     64.9632E+06     15.9520E+06     64.6783E+06    -4.48898E+06
             233     107.566E-03    -1.29222E-06     107.566E-03     76.3712E-03    -37.9743E-03    -38.3969E-03    -38.3476E-03     76.3219E-03    -37.9743E-03     4.56405E-03     76.4483E-03     75.9829E+06     71.3167E+06     70.2655E+06    -5.18379E+06     69.6789E+06    -4.59726E+06     71.3167E+06    -6.42719E+06
             234     106.479E-03     1.98406E-06     106.479E-03     88.1870E-03    -43.8851E-03    -44.3019E-03    -44.2712E-03     88.1563E-03    -43.8851E-03     4.02773E-03     88.2829E-03     97.7360E+06     66.7256E+06     64.7742E+06    -31.9654E+06     65.8947E+06    -31.3754E+06     65.0151E+06    -7.07175E+06
             235     105.382E-03    -1.94346E-06     105.382E-03     97.8940E-03    -48.7118E-03    -49.1821E-03    -49.1639E-03     97.8757E-03    -48.7118E-03     2.72117E-03     98.0194E-03     115.107E+06     59.0976E+06     57.0996E+06    -56.9874E+06     58.5815E+06    -56.7588E+06     57.3871E+06    -5.12995E+06
             236     104.276E-03     2.74820E-06     104.276E-03     105.508E-03    -52.2507E-03    -53.2575E-03    -53.2538E-03     105.505E-03    -52.2507E-03     1.47856E-03     105.654E-03     121.091E+06     47.8215E+06     44.8198E+06    -74.7241E+06     44.3020E+06    -74.2063E+06     47.8215E+06    -7.43962E+06
             237     103.160E-03    -1.60471E-06     103.160E-03     110.592E-03    -54.9081E-03    -55.6836E-03    -55.4871E-03     110.586E-03    -55.0985E-03     2.01650E-03     110.746E-03     131.005E+06     35.6749E+06     28.9449E+06    -98.5633E+06     32.4629E+06    -98.0655E+06     31.6591E+06    -7.40286E+06
             238     102.040E-03     1.18589E-06     102.040E-03     113.714E-03    -56.3729E-03    -57.3406E-03    -57.1464E-03     113.710E-03    -56.5633E-03     1.46426E-03     113.874E-03     136.066E+06     17.1056E+06     11.0069E+06    -121.899E+06     14.8823E+06    -121.759E+06     13.0898E+06    -4.36757E+06
             239     100.921E-03     306.773E-09     100.921E-03     114.552E-03    -56.6657E-03    -57.8866E-03    -57.4415E-03     114.551E-03    -57.1093E-03     1.00501E-03     114.710E-03     137.494E+06    -976.823E+03    -4.88893E+06    -140.385E+06    -3.25337E+06    -140.191E+06    -2.80595E+06    -5.05666E+06
             240     99.7991E-03    -1.17039E-06     99.7991E-03     115.089E-03    -56.9338E-03    -58.1547E-03    -57.7096E-03     115.087E-03    -57.3773E-03     1.02525E-03     115.259E-03     138.291E+06    -20.2648E+06    -23.2546E+06    -160.026E+06    -21.6683E+06    -159.783E+06    -22.0939E+06    -5.79053E+06
             241     98.6783E-03     2.65021E-06     98.6783E-03     116.804E-03    -57.7122E-03    -59.0921E-03    -59.0909E-03     116.803E-03    -57.7122E-03     883.731E-06     116.976E-03     140.033E+06    -37.4112E+06    -40.4420E+06    -178.934E+06    -38.8031E+06    -178.703E+06    -39.2813E+06    -5.69169E+06
             242     97.5547E-03    -1.53936E-06     97.5547E-03     116.990E-03    -57.8022E-03    -59.1878E-03    -58.4039E-03     116.989E-03    -58.5853E-03     696.160E-06     117.157E-03     146.286E+06    -53.8841E+06    -57.0821E+06    -201.743E+06    -55.4003E+06    -201.554E+06    -55.7542E+06    -5.17550E+06
             243     96.4285E-03     76.6784E-09     96.4285E-03     116.570E-03    -57.4376E-03    -59.1324E-03    -58.3447E-03     116.565E-03    -58.2207E-03     1.48490E-03     116.745E-03     150.977E+06    -69.5095E+06    -72.8357E+06    -222.122E+06    -70.9132E+06    -222.046E+06    -71.5078E+06    -3.17372E+06
             244     95.3089E-03     1.60605E-06     95.3089E-03     117.181E-03    -58.0278E-03    -59.1535E-03    -59.1491E-03     117.177E-03    -58.0278E-03     1.31450E-03     117.358E-03     160.960E+06    -70.8520E+06    -75.3471E+06    -234.012E+06    -73.4433E+06    -233.917E+06    -72.8504E+06    -3.62345E+06
             245     94.1852E-03    -1.17156E-06     94.1852E-03     117.287E-03    -58.3897E-03    -58.8976E-03    -58.8966E-03     117.286E-03    -58.3897E-03     651.639E-06     117.466E-03     166.824E+06    -78.7491E+06    -83.9635E+06    -248.119E+06    -81.3513E+06    -248.014E+06    -81.4668E+06    -4.02620E+06
             246     93.0589E-03     1.68784E-06     93.0589E-03     116.635E-03    -57.8981E-03    -58.7369E-03    -58.7326E-03     116.631E-03    -57.8981E-03     1.65467E-03     116.796E-03     172.198E+06    -88.3972E+06       -92.5E+06    -262.606E+06    -89.8078E+06    -262.580E+06    -91.1149E+06    -1.46816E+06
             247     91.9393E-03    -651.601E-09     91.9393E-03     116.132E-03    -57.6770E-03    -58.4547E-03    -58.4513E-03     116.128E-03    -57.6770E-03     1.22869E-03     116.316E-03     182.436E+06    -87.3830E+06    -89.5680E+06    -270.901E+06    -89.5798E+06    -270.889E+06    -87.3830E+06    -1.04403E+06
             248     90.8182E-03     1.09922E-06     90.8182E-03     116.512E-03    -57.9754E-03    -58.5366E-03    -58.5360E-03     116.511E-03    -57.9754E-03     580.364E-06     116.720E-03     183.877E+06    -88.8366E+06    -91.2979E+06    -273.931E+06    -89.6580E+06    -273.909E+06    -90.4981E+06    -1.99212E+06
             249     89.6940E-03    -503.726E-09     89.6940E-03     116.833E-03    -58.2435E-03    -58.5894E-03    -58.5876E-03     116.831E-03    -58.2435E-03     1.09313E-03     117.032E-03     183.534E+06    -92.6843E+06    -94.4815E+06    -277.105E+06    -92.8346E+06    -277.091E+06    -94.3458E+06    -266.730E+03
             250     88.5706E-03     533.974E-09     88.5706E-03     116.173E-03    -58.0599E-03    -58.1127E-03    -58.0759E-03     116.171E-03    -58.0951E-03     1.02734E-03     116.498E-03     192.995E+06    -87.5196E+06    -88.8977E+06    -281.198E+06    -87.6617E+06    -281.192E+06    -88.7619E+06     286.307E+03
             251     87.4512E-03    -619.135E-09     87.4512E-03     115.627E-03    -57.6553E-03    -57.9714E-03    -57.9350E-03     115.626E-03    -57.6905E-03     888.643E-06     116.241E-03     198.808E+06    -86.8190E+06    -88.7684E+06    -286.594E+06    -87.5277E+06    -286.593E+06    -88.0612E+06    -509.166E+03
             252     86.3280E-03     1.15488E-06     86.3280E-03     115.691E-03    -57.5827E-03    -58.1081E-03    -58.1070E-03     115.690E-03    -57.5827E-03     840.255E-06     116.237E-03     202.131E+06    -83.9892E+06    -85.0671E+06    -286.657E+06    -85.0677E+06    -286.656E+06    -83.9892E+06    -333.837E+03
             253     85.2091E-03    -691.667E-09     85.2091E-03     116.286E-03    -57.8503E-03    -58.4356E-03    -58.4336E-03     116.284E-03    -57.8503E-03     1.07664E-03     116.588E-03     205.294E+06    -78.4639E+06    -79.2151E+06    -284.132E+06    -78.8352E+06    -284.132E+06    -78.8443E+06    -146.251E+03
             254     84.0833E-03     1.32424E-06     84.0833E-03     116.732E-03    -57.9163E-03    -58.8155E-03    -58.8138E-03     116.730E-03    -57.9163E-03     812.503E-06     117.306E-03     207.849E+06    -79.5638E+06    -80.5988E+06    -287.928E+06    -80.2356E+06    -287.911E+06    -79.9442E+06    -1.27369E+06
             255     82.9641E-03    -264.347E-09     82.9641E-03     116.132E-03    -57.7150E-03    -58.4169E-03    -58.2722E-03     116.131E-03    -57.8584E-03     700.717E-06     117.069E-03     210.044E+06    -79.4015E+06    -81.4477E+06    -290.460E+06    -80.0734E+06    -290.443E+06    -80.7931E+06    -1.22406E+06
             256     81.8399E-03    -29.0682E-09     81.8399E-03     115.756E-03    -57.5161E-03    -58.2394E-03    -58.0941E-03     115.754E-03    -57.6595E-03     1.13941E-03     116.564E-03     209.503E+06    -78.5696E+06    -81.3847E+06    -289.466E+06    -79.9943E+06    -289.465E+06    -79.9612E+06     440.945E+03
             257     80.7195E-03     1.13841E-06     80.7195E-03     115.662E-03    -57.3600E-03    -58.3017E-03    -58.3005E-03     115.660E-03    -57.3600E-03     917.122E-06     116.250E-03     210.245E+06    -78.0670E+06    -80.3189E+06    -289.429E+06    -79.4925E+06    -289.427E+06    -78.8954E+06     9.93722E+03
             258     79.5998E-03    -469.471E-09     79.5998E-03     115.754E-03    -57.5550E-03    -58.1985E-03    -58.1975E-03     115.753E-03    -57.5550E-03     828.922E-06     116.513E-03     212.241E+06    -74.9862E+06    -76.1561E+06    -287.809E+06    -75.3330E+06    -287.804E+06    -75.8146E+06     363.623E+03
             259     78.4753E-03     1.00235E-06     78.4753E-03     116.113E-03    -57.5392E-03    -58.5743E-03    -58.5724E-03     116.112E-03    -57.5392E-03     1.09240E-03     117.116E-03     210.855E+06    -75.0512E+06    -75.5652E+06    -286.163E+06    -75.3971E+06    -286.158E+06    -75.2237E+06     697.726E+03
             260     77.3555E-03     411.244E-09     77.3555E-03     116.264E-03    -57.5586E-03    -58.7053E-03    -58.3083E-03     116.260E-03    -57.9520E-03     1.57679E-03     117.332E-03     208.546E+06    -77.1704E+06    -77.3490E+06    -285.805E+06    -77.1826E+06    -285.799E+06    -77.3430E+06     816.062E+03
             261     76.2322E-03    -1.16113E-06     76.2322E-03     116.173E-03    -57.8219E-03    -58.3511E-03    -57.9551E-03     116.171E-03    -58.2154E-03     601.298E-06     117.079E-03     207.470E+06    -74.6237E+06    -75.4644E+06    -282.511E+06    -74.6587E+06    -282.482E+06    -75.4584E+06    -743.765E+03
             262     75.1113E-03     1.40433E-06     75.1113E-03     115.817E-03    -57.6913E-03    -58.1262E-03    -58.1249E-03     115.816E-03    -57.6913E-03     308.200E-06     116.698E-03     208.078E+06    -73.3075E+06    -74.5534E+06    -282.005E+06    -73.7457E+06    -281.978E+06    -74.1422E+06    -888.555E+03
             263     73.9909E-03    -838.957E-09     73.9909E-03     116.033E-03    -57.7612E-03    -58.2720E-03    -58.2692E-03     116.030E-03    -57.7612E-03     1.37392E-03     116.864E-03     209.479E+06    -75.4162E+06    -76.1719E+06    -285.272E+06    -76.1785E+06    -285.265E+06    -75.4162E+06     144.246E+03
             264     72.8641E-03     1.23686E-06     72.8641E-03     116.258E-03    -57.6801E-03    -58.5782E-03    -58.5752E-03     116.255E-03    -57.6801E-03     1.43805E-03     117.068E-03     211.655E+06    -71.8786E+06    -72.2657E+06    -283.727E+06    -72.2345E+06    -283.715E+06    -71.9212E+06     460.702E+03
             265     71.7488E-03     51.6956E-09     71.7488E-03     116.058E-03    -57.5702E-03    -58.4877E-03    -58.4863E-03     116.056E-03    -57.5702E-03     443.865E-06     117.114E-03     211.387E+06    -71.3818E+06    -71.7173E+06    -282.937E+06    -71.6902E+06    -282.921E+06    -71.4243E+06     141.497E+03
             266     70.6227E-03     386.001E-09     70.6227E-03     115.996E-03    -57.8164E-03    -58.1798E-03    -58.1787E-03     115.995E-03    -57.8164E-03     379.491E-06     116.847E-03     209.858E+06    -71.4675E+06    -71.9988E+06    -281.590E+06    -71.7698E+06    -281.581E+06    -71.7059E+06    -291.962E+03
             267     69.5031E-03    -144.399E-09     69.5031E-03     115.747E-03    -57.7287E-03    -58.0185E-03    -57.8590E-03     115.745E-03    -57.8863E-03     1.12605E-03     116.380E-03     209.910E+06    -71.4315E+06    -72.3683E+06    -281.808E+06    -71.4371E+06    -281.803E+06    -72.3683E+06    -11.5276E+03
             268     68.3795E-03    -166.577E-09     68.3795E-03     115.535E-03    -57.3375E-03    -58.1979E-03    -58.0385E-03     115.534E-03    -57.4952E-03     1.10361E-03     116.327E-03     210.042E+06    -72.8174E+06    -74.1649E+06    -283.530E+06    -73.4734E+06    -283.523E+06    -73.5158E+06     103.220E+03
             269     67.2605E-03     1.49695E-06     67.2605E-03     115.785E-03    -57.2870E-03    -58.4982E-03    -58.4972E-03     115.784E-03    -57.2870E-03     616.807E-06     116.648E-03     212.226E+06    -69.1672E+06    -70.5034E+06    -282.058E+06    -70.5172E+06    -282.044E+06    -69.1672E+06    -371.192E+03
             270     66.1397E-03    -530.961E-09     66.1397E-03     116.075E-03    -57.7746E-03    -58.3008E-03    -58.3008E-03     116.075E-03    -57.7746E-03     152.466E-06     116.957E-03     212.669E+06    -72.6153E+06    -73.8593E+06    -285.904E+06    -73.8902E+06    -285.873E+06    -72.6153E+06    -2.51372E+06
             271     65.0154E-03     569.329E-09     65.0154E-03     116.413E-03    -58.1450E-03    -58.2682E-03    -58.2627E-03     116.408E-03    -58.1450E-03     1.48978E-03     117.138E-03     211.267E+06    -73.5768E+06    -75.7682E+06    -285.929E+06    -74.1591E+06    -285.903E+06    -75.2113E+06    -802.852E+03
             272     63.8924E-03    -405.782E-09     63.8924E-03     116.847E-03    -58.1492E-03    -58.6979E-03    -58.6918E-03     116.841E-03    -58.1492E-03     1.86353E-03     117.416E-03     209.266E+06    -72.0185E+06    -73.6835E+06    -282.107E+06    -72.0839E+06    -282.042E+06    -73.6835E+06     3.20025E+06
             273     62.7714E-03     1.23860E-06     62.7714E-03     116.397E-03    -57.8087E-03    -58.5884E-03    -58.5877E-03     116.396E-03    -57.8087E-03     647.169E-06     117.002E-03     209.649E+06    -72.4415E+06    -73.9577E+06    -282.841E+06    -73.9957E+06    -282.773E+06    -72.4719E+06     1.62965E+06
             274     63.2163E-03     16.0545E-03     61.1437E-03     138.143E-03    -58.0789E-03    -80.0643E-03    -56.7570E-03     114.836E-03    -58.0789E-03     126.912E-03     429.276E-03     135.254E+06     130.828E+06     122.954E+06    -8.15891E+06    -8.14721E+06     130.816E+06     122.954E+06     750.043E+03
             275     62.7822E-03     15.1118E-03     60.9363E-03     145.783E-03    -57.9805E-03    -87.8020E-03    -57.1414E-03     115.122E-03    -57.9805E-03     156.529E-03     426.420E-03     127.905E+06     124.152E+06     96.8914E+06    -14.1870E+06    -14.1766E+06     124.142E+06     96.8914E+06     655.098E+03
             276     62.4216E-03     14.1641E-03     60.7934E-03     128.125E-03    -57.8120E-03    -70.3135E-03    -56.3254E-03     114.137E-03    -57.8120E-03     98.0127E-03     317.111E-03     117.305E+06     113.296E+06     55.5682E+06    -20.6101E+06    -20.5915E+06     113.278E+06     55.5682E+06     1.11277E+06
             277     62.1441E-03     13.2180E-03     60.7221E-03     118.730E-03    -57.6729E-03    -61.0566E-03    -56.1968E-03     113.870E-03    -57.6729E-03     57.5981E-03     257.196E-03     114.158E+06     105.525E+06     23.0913E+06    -23.9823E+06    -23.9031E+06     105.445E+06     23.0913E+06     572.861E+03
             278     61.8964E-03     12.2745E-03     60.6671E-03     116.243E-03    -57.5976E-03    -58.6450E-03    -56.2136E-03     113.846E-03    -57.6326E-03     39.8299E-03     218.678E-03     75.7004E+06     60.1840E+06    -1.16440E+06    -24.4043E+06    -24.3295E+06     60.1093E+06    -1.16440E+06    -764.606E+03
             279     61.6855E-03     11.3286E-03     60.6364E-03     115.335E-03    -57.5479E-03    -57.7867E-03    -56.4562E-03     114.212E-03    -57.7557E-03     27.4724E-03     193.777E-03     38.2487E+06     8.43920E+06    -18.5149E+06    -35.0817E+06    -24.9433E+06    -13.7562E+06    -6.45796E+06     83.6821E+03
             280     61.4920E-03     10.3852E-03     60.6087E-03     115.536E-03    -57.5432E-03    -57.9925E-03    -56.9132E-03     114.806E-03    -57.8928E-03     22.3979E-03     177.092E-03     58.2461E+06    -4.97498E+06    -27.8468E+06    -70.4588E+06    -28.2052E+06    -70.1003E+06    -4.97498E+06    -104.182E+03
             281     61.3181E-03     9.43985E-03     60.5871E-03     115.551E-03    -57.4825E-03    -58.0682E-03    -57.0683E-03     115.068E-03    -57.9996E-03     17.9224E-03     163.267E-03     98.2687E+06    -6.33854E+06    -32.8861E+06    -115.085E+06    -33.0890E+06    -114.882E+06    -6.33854E+06     731.319E+03
             282     61.1644E-03     8.49559E-03     60.5716E-03     115.478E-03    -57.3582E-03    -58.1198E-03    -57.1019E-03     115.222E-03    -58.1198E-03     13.2337E-03     151.852E-03     132.461E+06    -5.56815E+06    -38.1439E+06    -151.197E+06    -38.4111E+06    -150.930E+06    -5.56815E+06     3.51037E+06
             283     61.0277E-03     7.55112E-03     60.5588E-03     115.905E-03    -57.6883E-03    -58.2168E-03    -57.5168E-03     115.734E-03    -58.2168E-03     10.8244E-03     143.576E-03     162.267E+06    -7.40519E+06    -42.1568E+06    -184.205E+06    -42.2837E+06    -184.078E+06    -7.40519E+06     3.66832E+06
             284     60.9088E-03     6.60633E-03     60.5495E-03     116.232E-03    -57.9650E-03    -58.2665E-03    -57.8618E-03     116.128E-03    -58.2665E-03     8.29706E-03     136.852E-03     186.555E+06    -11.2645E+06    -44.9009E+06    -212.278E+06    -44.9469E+06    -212.232E+06    -11.2645E+06     2.63693E+06
             285     60.8062E-03     5.66303E-03     60.5420E-03     116.019E-03    -57.7335E-03    -58.2854E-03    -57.6805E-03     115.966E-03    -58.2854E-03     5.87444E-03     130.746E-03     198.178E+06    -20.5320E+06    -49.3246E+06    -231.479E+06    -49.3387E+06    -231.465E+06    -20.5320E+06     1.14563E+06
             286     60.7198E-03     4.71833E-03     60.5362E-03     116.220E-03    -57.8662E-03    -58.3539E-03    -57.8720E-03     116.195E-03    -58.3228E-03     4.10219E-03     126.361E-03     208.527E+06    -29.7869E+06    -54.8042E+06    -249.687E+06    -54.8083E+06    -249.683E+06    -29.7869E+06     486.993E+03
             287     60.6503E-03     3.77483E-03     60.5327E-03     116.595E-03    -58.1830E-03    -58.4122E-03    -58.2650E-03     116.583E-03    -58.3175E-03     2.89314E-03     123.050E-03     215.301E+06    -37.1754E+06    -59.8641E+06    -262.919E+06    -59.8681E+06    -262.915E+06    -37.1754E+06     592.336E+03
             288     60.5969E-03     2.83167E-03     60.5307E-03     116.521E-03    -58.1356E-03    -58.3855E-03    -58.2858E-03     116.516E-03    -58.2298E-03     1.86135E-03     120.300E-03     214.438E+06    -48.0880E+06    -64.1835E+06    -270.071E+06    -64.1878E+06    -270.067E+06    -48.0880E+06     131.130E+03
             289     60.5579E-03     1.88763E-03     60.5284E-03     116.257E-03    -57.8725E-03    -58.3847E-03    -58.1059E-03     116.255E-03    -58.1491E-03     1.18523E-03     118.363E-03     213.297E+06    -59.2355E+06    -67.0160E+06    -276.289E+06    -67.0206E+06    -276.284E+06    -59.2355E+06    -268.296E+03
             290     60.5370E-03     944.026E-06     60.5296E-03     116.207E-03    -57.6297E-03    -58.5770E-03    -58.2439E-03     116.205E-03    -57.9610E-03     1.09989E-03     117.376E-03     211.784E+06     -65.809E+06    -71.2422E+06    -280.244E+06     -69.815E+06    -280.243E+06    -67.2374E+06    -459.674E+03
             291     62.1294E-03     16.0551E-03     60.0191E-03     138.022E-03    -58.1013E-03    -79.9206E-03    -56.3458E-03     114.447E-03    -58.1013E-03     127.724E-03     429.169E-03     135.341E+06     130.569E+06     122.858E+06    -8.38529E+06    -8.37789E+06     130.562E+06     122.858E+06     711.757E+03
             292     61.6933E-03     15.1081E-03     59.8148E-03     145.821E-03    -58.0158E-03    -87.8049E-03    -57.2052E-03     115.221E-03    -58.0158E-03     156.224E-03     427.466E-03     129.460E+06     124.692E+06     97.2695E+06    -15.4778E+06    -15.4724E+06     124.687E+06     97.2695E+06     181.522E+03
             293     61.3307E-03     14.1631E-03     59.6729E-03     128.464E-03    -57.8222E-03    -70.6415E-03    -56.8856E-03     114.708E-03    -57.8222E-03     97.4257E-03     316.885E-03     117.605E+06     113.901E+06     55.9579E+06    -19.9886E+06    -19.9493E+06     113.861E+06     55.9579E+06    -67.5050E+03
             294     61.0456E-03     13.2206E-03     59.5969E-03     118.328E-03    -57.6730E-03    -60.6553E-03    -55.9439E-03     113.617E-03    -57.6730E-03     56.5903E-03     256.599E-03     114.055E+06     107.312E+06     24.2066E+06    -22.1452E+06     -22.068E+06     107.235E+06     24.2066E+06    -1.19804E+06
             295     60.8009E-03     12.2739E-03     59.5491E-03     115.981E-03    -57.6315E-03    -58.3496E-03    -55.9353E-03     113.596E-03    -57.6609E-03     39.8847E-03     218.567E-03     74.9915E+06     59.3992E+06     115.590E+03    -24.8175E+06    -24.7632E+06     59.3449E+06     115.590E+03    -1.27233E+06
             296     60.5805E-03     11.3293E-03     59.5118E-03     115.545E-03    -57.6134E-03    -57.9312E-03    -56.5578E-03     114.347E-03    -57.7892E-03     28.3164E-03     193.798E-03     37.8557E+06     6.54577E+06    -19.3851E+06    -36.7836E+06    -26.8053E+06    -16.1391E+06    -6.67852E+06     268.798E+03
             297     60.3884E-03     10.3841E-03     59.4889E-03     115.583E-03    -57.6092E-03    -57.9734E-03    -56.8743E-03     114.817E-03    -57.9424E-03     22.9745E-03     177.058E-03     61.8805E+06    -1.18436E+06    -27.8895E+06    -71.2804E+06    -28.6901E+06    -70.4798E+06    -1.18436E+06     2.33853E+06
             298     60.2092E-03     9.43937E-03     59.4646E-03     115.704E-03    -57.6559E-03    -58.0481E-03    -57.1485E-03     115.197E-03    -58.0481E-03     18.3019E-03     163.313E-03     102.920E+06    -3.02804E+06    -32.2600E+06    -117.185E+06    -32.8614E+06    -116.584E+06    -3.02804E+06     3.40960E+06
             299     60.0539E-03     8.49515E-03     59.4500E-03     115.824E-03    -57.6580E-03    -58.1659E-03    -57.4457E-03     115.578E-03    -58.1325E-03     12.9447E-03     152.186E-03     134.071E+06    -3.83772E+06    -35.5992E+06    -150.823E+06    -35.8304E+06    -150.592E+06    -3.83772E+06     3.29951E+06
             300     59.9153E-03     7.54999E-03     59.4377E-03     115.948E-03    -57.7084E-03    -58.2397E-03    -57.5827E-03     115.789E-03    -58.2063E-03     10.3907E-03     143.626E-03     162.510E+06    -5.21327E+06    -39.5683E+06    -182.130E+06    -39.6492E+06    -182.049E+06    -5.21327E+06     2.96634E+06
             301     59.7919E-03     6.60716E-03     59.4257E-03     116.147E-03    -57.8865E-03    -58.2604E-03    -57.7965E-03     116.057E-03    -58.2604E-03     7.71667E-03     136.855E-03     186.718E+06    -8.96044E+06    -45.1445E+06    -211.109E+06    -45.1681E+06    -211.085E+06    -8.96044E+06     1.73271E+06
             302     59.6900E-03     5.66319E-03     59.4208E-03     116.196E-03    -57.9300E-03    -58.2664E-03    -57.8823E-03     116.149E-03    -58.2664E-03     5.72142E-03     130.971E-03     198.024E+06    -17.0869E+06    -49.8371E+06    -229.393E+06    -49.8489E+06    -229.381E+06    -17.0869E+06     1.16227E+06
             303     59.6012E-03     4.71924E-03     59.4141E-03     116.117E-03    -57.8475E-03    -58.2700E-03    -57.8193E-03     116.089E-03    -58.2700E-03     4.31195E-03     126.194E-03     208.449E+06    -29.0979E+06    -54.9895E+06    -249.245E+06    -54.9983E+06    -249.236E+06    -29.0979E+06     149.375E+03
             304     59.5305E-03     3.77486E-03     59.4107E-03     116.271E-03    -57.9167E-03    -58.3541E-03    -57.9668E-03     116.257E-03    -58.2906E-03     3.00998E-03     122.742E-03     215.445E+06    -38.2744E+06    -59.4548E+06    -263.517E+06    -59.4595E+06    -263.512E+06    -38.2744E+06    -604.125E+03
             305     59.4747E-03     2.83126E-03     59.4073E-03     116.307E-03    -57.9483E-03    -58.3583E-03    -58.0057E-03     116.300E-03    -58.2947E-03     1.93058E-03     120.155E-03     214.074E+06    -49.5503E+06    -63.2765E+06    -270.096E+06    -63.2830E+06    -270.090E+06    -49.5503E+06    -924.586E+03
             306     59.4383E-03     1.88741E-03     59.4083E-03     116.343E-03    -57.9405E-03    -58.4026E-03    -57.9786E-03     116.341E-03    -58.3622E-03     1.22812E-03     118.500E-03     212.829E+06    -61.0801E+06    -66.5874E+06    -276.591E+06    -66.5935E+06    -276.585E+06    -61.0801E+06    -949.406E+03
             307     59.4136E-03     942.276E-06     59.4061E-03     116.832E-03    -58.0127E-03    -58.8189E-03    -58.5240E-03     116.830E-03    -58.3059E-03     990.633E-06     118.005E-03     211.841E+06    -66.3970E+06    -70.2784E+06    -280.145E+06    -69.4485E+06    -280.141E+06    -67.2315E+06    -706.787E+03
             308     61.0491E-03     16.0543E-03     58.9003E-03     137.983E-03    -58.1017E-03    -79.8817E-03    -56.5047E-03     114.606E-03    -58.1017E-03     126.728E-03     428.781E-03     134.082E+06     130.851E+06     125.003E+06    -5.98271E+06    -5.97274E+06     130.752E+06     125.091E+06     1.16444E+06
             309     60.6050E-03     15.1085E-03     58.6916E-03     145.707E-03    -57.9896E-03    -87.7170E-03    -57.6062E-03     115.596E-03    -57.9896E-03     154.856E-03     427.387E-03     128.374E+06     124.937E+06     98.1325E+06    -13.7525E+06    -13.7352E+06     124.920E+06     98.1325E+06    -173.843E+03
             310     60.2380E-03     14.1665E-03     58.5485E-03     127.460E-03    -57.7847E-03    -69.6751E-03    -56.3713E-03     114.156E-03    -57.7847E-03     95.9232E-03     316.379E-03     117.286E+06     114.116E+06     54.7185E+06    -19.4078E+06    -19.3758E+06     114.084E+06     54.7185E+06    -1.56255E+06
             311     59.9535E-03     13.2184E-03     58.4782E-03     117.657E-03    -57.6845E-03    -59.9728E-03    -55.0961E-03     112.781E-03    -57.6845E-03     57.3614E-03     255.853E-03     114.155E+06     105.994E+06     22.5529E+06    -23.7575E+06    -23.7322E+06     105.969E+06     22.5529E+06    -352.584E+03
             312     59.7013E-03     12.2732E-03     58.4261E-03     116.147E-03    -57.7149E-03    -58.4321E-03    -55.9314E-03     113.646E-03    -57.7149E-03     40.8129E-03     218.734E-03     77.4245E+06     59.5743E+06     93.2198E+03    -27.8627E+06    -27.8519E+06     59.5635E+06     93.2198E+03     401.955E+03
             313     59.4801E-03     11.3280E-03     58.3914E-03     115.765E-03    -57.6777E-03    -58.0876E-03    -56.7227E-03     114.547E-03    -57.8240E-03     28.5711E-03     193.907E-03     38.0880E+06     3.76192E+06    -21.9461E+06    -39.9570E+06    -30.8020E+06    -17.0534E+06    -10.2858E+06    -509.126E+03
             314     59.2826E-03     10.3832E-03     58.3662E-03     115.931E-03    -57.8017E-03    -58.1296E-03    -57.2524E-03     115.210E-03    -57.9580E-03     22.2728E-03     177.453E-03     61.4532E+06    -4.50256E+06    -30.8475E+06    -74.1166E+06    -31.4459E+06    -73.5182E+06    -4.50256E+06     1.03788E+06
             315     59.1016E-03     9.43944E-03     58.3430E-03     115.965E-03    -57.8522E-03    -58.1132E-03    -57.4738E-03     115.515E-03    -58.0412E-03     17.2826E-03     163.695E-03     103.524E+06    -2.07796E+06    -31.1336E+06    -116.817E+06    -31.8393E+06    -116.112E+06    -2.07796E+06     3.38751E+06
             316     58.9431E-03     8.49506E-03     58.3277E-03     115.934E-03    -57.8057E-03    -58.1280E-03    -57.6120E-03     115.707E-03    -58.0946E-03     12.4721E-03     152.433E-03     133.329E+06    -3.22394E+06    -35.0531E+06    -149.502E+06    -35.3444E+06    -149.211E+06    -3.22394E+06     3.38703E+06
             317     58.8017E-03     7.55300E-03     58.3146E-03     115.936E-03    -57.7445E-03    -58.1913E-03    -57.6226E-03     115.780E-03    -58.1579E-03     10.2990E-03     143.743E-03     162.857E+06    -3.25713E+06    -39.0388E+06    -180.994E+06    -39.1107E+06    -180.923E+06    -3.25713E+06     2.53056E+06
             318     58.6788E-03     6.60702E-03     58.3056E-03     115.840E-03    -57.6211E-03    -58.2187E-03    -57.5254E-03     115.744E-03    -58.2187E-03     7.98900E-03     136.516E-03     187.435E+06    -7.07462E+06    -42.6123E+06    -209.710E+06    -42.6310E+06    -209.691E+06    -7.07462E+06     1.53908E+06
             319     58.5713E-03     5.66275E-03     58.2969E-03     116.067E-03    -57.8163E-03    -58.2503E-03    -57.7671E-03     116.017E-03    -58.2503E-03     5.78793E-03     130.791E-03     198.678E+06    -15.3996E+06    -47.9697E+06    -228.333E+06    -47.9815E+06    -228.321E+06    -15.3996E+06     756.522E+03
             320     58.4840E-03     4.71934E-03     58.2933E-03     116.169E-03    -57.9167E-03    -58.2521E-03    -57.8867E-03     116.139E-03    -58.2521E-03     4.55030E-03     126.187E-03     208.154E+06    -27.4861E+06    -53.1811E+06    -247.231E+06    -53.1958E+06    -247.216E+06    -27.4861E+06     267.955E+03
             321     58.4102E-03     3.77535E-03     58.2880E-03     116.009E-03    -57.7294E-03    -58.2792E-03    -57.7124E-03     115.992E-03    -58.2792E-03     3.34374E-03     122.412E-03     214.562E+06    -41.0467E+06    -58.1666E+06    -263.618E+06    -58.1847E+06    -263.600E+06    -41.0467E+06    -826.463E+03
             322     58.3552E-03     2.83067E-03     58.2865E-03     116.235E-03    -57.8589E-03    -58.3758E-03    -57.8706E-03     116.229E-03    -58.3584E-03     1.84958E-03     120.112E-03     213.892E+06    -51.8342E+06    -62.7938E+06    -270.965E+06    -62.8068E+06    -270.952E+06    -51.8342E+06    -1.23101E+06
             323     58.3155E-03     1.88638E-03     58.2849E-03     116.736E-03    -58.2467E-03    -58.4894E-03    -58.3428E-03     116.735E-03    -58.3918E-03     993.966E-06     118.891E-03     212.961E+06    -60.6516E+06    -67.4312E+06    -276.912E+06    -67.4348E+06    -276.908E+06    -60.6516E+06    -318.830E+03
             324     58.2914E-03     944.895E-06     58.2837E-03     116.708E-03    -58.2372E-03    -58.4709E-03    -58.3945E-03     116.707E-03    -58.3126E-03     783.346E-06     117.893E-03     212.286E+06    -67.3961E+06    -70.8842E+06    -281.397E+06    -70.0553E+06    -281.391E+06    -68.2306E+06    -151.375E+03
             325     59.9698E-03     16.0555E-03     57.7806E-03     138.970E-03    -58.0716E-03    -80.8986E-03    -57.2321E-03     115.304E-03    -58.0716E-03     127.699E-03     428.595E-03     133.412E+06     130.569E+06     124.464E+06    -5.74504E+06    -5.72512E+06     130.460E+06     124.553E+06     114.124E+03
             326     59.5165E-03     15.1126E-03     57.5658E-03     145.882E-03    -57.9579E-03    -87.9237E-03    -57.2478E-03     115.206E-03    -57.9579E-03     156.364E-03     426.137E-03     127.875E+06     125.533E+06     98.0584E+06    -12.6996E+06    -12.6737E+06     125.507E+06     98.0584E+06     528.579E+03
             327     59.1514E-03     14.1645E-03     57.4304E-03     126.808E-03    -57.7953E-03    -69.0127E-03    -55.4085E-03     113.204E-03    -57.7953E-03     96.6559E-03     316.554E-03     117.682E+06     114.482E+06     52.7186E+06    -19.6308E+06    -19.6086E+06     114.460E+06     52.7186E+06     131.782E+03
             328     58.8607E-03     13.2182E-03     57.3573E-03     118.269E-03    -57.7178E-03    -60.5516E-03    -55.5432E-03     113.261E-03    -57.7178E-03     58.1014E-03     256.736E-03     113.973E+06     104.629E+06     20.3834E+06    -24.7770E+06    -24.7718E+06     104.624E+06     20.3834E+06     494.210E+03
             329     58.6036E-03     12.2724E-03     57.3042E-03     116.524E-03    -57.7211E-03    -58.8033E-03    -56.4638E-03     114.185E-03    -57.7211E-03     39.3378E-03     219.491E-03     78.1887E+06     60.5336E+06      497.43E+03    -27.7707E+06    -27.7434E+06     60.5063E+06      497.43E+03     687.287E+03
             330     58.3793E-03     11.3278E-03     57.2697E-03     115.788E-03    -57.7531E-03    -58.0350E-03    -56.8994E-03     114.697E-03    -57.7973E-03     27.1703E-03     194.318E-03     38.8051E+06     5.02792E+06    -20.9678E+06    -39.5101E+06    -30.2720E+06    -15.2658E+06    -9.91226E+06     50.3297E+03
             331     58.1770E-03     10.3846E-03     57.2427E-03     115.889E-03    -57.8096E-03    -58.0794E-03    -57.2940E-03     115.202E-03    -57.9078E-03     21.7442E-03     177.451E-03     60.5746E+06    -8.59570E+06    -34.3653E+06    -77.2410E+06    -34.6812E+06    -76.9251E+06    -8.59570E+06     438.949E+03
             332     57.9951E-03     9.44067E-03     57.2216E-03     115.772E-03    -57.7079E-03    -58.0646E-03    -57.3280E-03     115.321E-03    -57.9925E-03     17.4590E-03     163.478E-03     99.6901E+06    -6.25873E+06    -38.1209E+06    -117.933E+06    -38.6043E+06    -117.450E+06    -6.25873E+06     2.71855E+06
             333     57.8325E-03     8.49673E-03     57.2049E-03     115.679E-03    -57.6185E-03    -58.0605E-03    -57.3518E-03     115.412E-03    -58.0605E-03     13.4635E-03     151.986E-03     127.519E+06    -5.54148E+06    -38.7802E+06    -146.289E+06    -39.0112E+06    -146.058E+06    -5.54148E+06     1.90533E+06
             334     57.6899E-03     7.55028E-03     57.1937E-03     115.904E-03    -57.7697E-03    -58.1344E-03    -57.5998E-03     115.734E-03    -58.1344E-03     10.7577E-03     143.685E-03     161.028E+06    -6.09586E+06    -39.2906E+06    -181.086E+06    -39.2992E+06    -181.078E+06    -6.09586E+06     38.9506E+03
             335     57.5633E-03     6.60784E-03     57.1828E-03     115.899E-03    -57.7106E-03    -58.1881E-03    -57.6106E-03     115.799E-03    -58.1881E-03     8.19249E-03     136.473E-03     185.720E+06    -9.91274E+06    -41.9471E+06    -209.543E+06    -41.9619E+06    -209.528E+06    -9.91274E+06     1.04894E+06
             336     57.4562E-03     5.66351E-03     57.1764E-03     115.873E-03    -57.6429E-03    -58.2302E-03    -57.5872E-03     115.817E-03    -58.2302E-03     6.14205E-03     130.540E-03     196.877E+06    -17.3607E+06    -46.3787E+06    -227.126E+06    -46.3950E+06    -227.110E+06    -17.3607E+06     1.15782E+06
             337     57.3643E-03     4.71869E-03     57.1699E-03     116.108E-03    -57.8346E-03    -58.2732E-03    -57.8039E-03     116.077E-03    -58.2732E-03     4.49023E-03     126.157E-03     208.109E+06    -26.6424E+06    -51.5806E+06    -246.066E+06    -51.5967E+06    -246.050E+06    -26.6424E+06     324.106E+03
             338     57.2919E-03     3.77487E-03     57.1674E-03     116.228E-03    -57.9030E-03    -58.3249E-03    -57.9235E-03     116.214E-03    -58.2903E-03     3.02483E-03     122.636E-03     214.548E+06    -39.4948E+06    -57.3760E+06    -262.376E+06    -57.4032E+06    -262.349E+06    -39.4948E+06     90.6464E+03
             339     57.2341E-03     2.83072E-03     57.1641E-03     116.387E-03    -58.0416E-03    -58.3451E-03    -58.0881E-03     116.381E-03    -58.2931E-03     1.85168E-03     120.233E-03     214.475E+06    -51.7951E+06    -63.1819E+06    -271.703E+06    -63.2005E+06    -271.685E+06    -51.7951E+06     63.7832E+03
             340     57.1931E-03     1.88812E-03     57.1619E-03     116.506E-03    -58.1717E-03    -58.3340E-03    -58.2275E-03     116.504E-03    -58.2767E-03     908.969E-06     118.652E-03     213.637E+06    -61.0660E+06    -67.1481E+06    -277.659E+06    -67.1483E+06    -277.658E+06    -61.0660E+06     125.011E+03
             341     57.1696E-03     942.638E-06     57.1618E-03     116.487E-03    -57.9771E-03    -58.5099E-03    -58.4433E-03     116.486E-03    -58.0424E-03     884.522E-06     117.601E-03     212.744E+06    -67.4512E+06    -70.1482E+06    -281.522E+06    -70.1509E+06    -281.520E+06    -67.4512E+06     141.523E+03
             342     58.8856E-03     16.0551E-03     56.6547E-03     139.031E-03    -58.0963E-03    -80.9350E-03    -56.7527E-03     114.849E-03    -58.0963E-03     129.673E-03     428.668E-03     135.629E+06     130.097E+06     122.419E+06    -9.17278E+06    -9.14435E+06     130.069E+06     122.419E+06    -797.835E+03
             343     58.4323E-03     15.1084E-03     56.4453E-03     145.428E-03    -58.0282E-03    -87.3994E-03    -56.6731E-03     114.701E-03    -58.0282E-03     156.005E-03     425.809E-03     129.841E+06     124.573E+06     97.6923E+06    -15.7004E+06    -15.6677E+06     124.540E+06     97.6923E+06    -382.018E+03
             344     58.0642E-03     14.1621E-03     56.3106E-03     127.515E-03    -57.8674E-03    -69.6481E-03    -56.1401E-03     114.007E-03    -57.8674E-03     96.5551E-03     317.394E-03     119.367E+06     114.998E+06     54.3435E+06    -20.7271E+06    -20.6997E+06     114.971E+06     54.3435E+06     582.795E+03
             345     57.7661E-03     13.2178E-03     56.2335E-03     119.247E-03    -57.7187E-03    -61.5280E-03    -56.6262E-03     114.345E-03    -57.7187E-03     57.7453E-03     257.684E-03     115.190E+06     105.503E+06     20.6798E+06    -25.2955E+06    -25.2864E+06     105.493E+06     20.6798E+06     795.712E+03
             346     57.5078E-03     12.2751E-03     56.1824E-03     116.673E-03    -57.6634E-03    -59.0097E-03    -56.7163E-03     114.380E-03    -57.6634E-03     39.1805E-03     219.194E-03     79.2947E+06     60.9421E+06    -697.315E+03    -28.4326E+06    -28.4087E+06     60.9182E+06    -697.315E+03     918.397E+03
             347     57.2793E-03     11.3306E-03     56.1474E-03     115.603E-03    -57.6115E-03    -57.9913E-03    -56.6983E-03     114.443E-03    -57.7452E-03     27.9502E-03     193.750E-03     42.2144E+06     7.03755E+06    -21.3082E+06    -41.3204E+06    -30.9294E+06    -15.4859E+06    -9.17582E+06     2.17206E+06
             348     57.0742E-03     10.3846E-03     56.1216E-03     115.353E-03    -57.4629E-03    -57.8899E-03    -56.7235E-03     114.613E-03    -57.8899E-03     22.4875E-03     176.556E-03     63.2798E+06    -7.27546E+06    -33.3549E+06    -78.8401E+06    -34.3193E+06    -77.8756E+06    -7.27546E+06     3.05160E+06
             349     56.8877E-03     9.43971E-03     56.0990E-03     115.501E-03    -57.5053E-03    -57.9961E-03    -57.0128E-03     115.009E-03    -57.9961E-03     18.2377E-03     163.070E-03     97.4326E+06    -7.43625E+06    -35.4193E+06    -115.627E+06    -35.6423E+06    -115.404E+06    -7.43625E+06     366.540E+03
             350     56.7240E-03     8.49444E-03     56.0844E-03     115.858E-03    -57.7731E-03    -58.0852E-03    -57.5056E-03     115.578E-03    -58.0720E-03     13.8115E-03     152.121E-03     125.407E+06    -7.71141E+06    -36.2243E+06    -144.822E+06    -36.2685E+06    -144.778E+06    -7.71141E+06    -1.92170E+06
             351     56.5767E-03     7.55242E-03     56.0703E-03     115.956E-03    -57.8006E-03    -58.1557E-03    -57.6504E-03     115.793E-03    -58.1425E-03     10.5449E-03     143.632E-03     160.070E+06    -9.11616E+06    -39.7236E+06    -182.270E+06    -39.7507E+06    -182.243E+06    -9.11616E+06    -231.906E+03
             352     56.4498E-03     6.60707E-03     56.0618E-03     115.940E-03    -57.7499E-03    -58.1905E-03    -57.6518E-03     115.842E-03    -58.1905E-03     8.18187E-03     136.486E-03     182.818E+06    -13.7039E+06    -44.6026E+06    -209.986E+06    -44.6248E+06    -209.964E+06    -13.7039E+06     613.329E+03
             353     56.3394E-03     5.66271E-03     56.0541E-03     116.014E-03    -57.7940E-03    -58.2204E-03    -57.7364E-03     115.957E-03    -58.2204E-03     6.21737E-03     130.670E-03     193.983E+06    -20.1102E+06    -48.2273E+06    -226.602E+06    -48.2386E+06    -226.591E+06    -20.1102E+06     610.320E+03
             354     56.2469E-03     4.71919E-03     56.0486E-03     116.142E-03    -57.8817E-03    -58.2600E-03    -57.8536E-03     116.114E-03    -58.2600E-03     4.28352E-03     126.217E-03     207.897E+06    -26.0710E+06    -52.5321E+06    -245.923E+06    -52.5570E+06    -245.899E+06    -26.0710E+06     952.537E+03
             355     56.1717E-03     3.77497E-03     56.0447E-03     116.424E-03    -58.0880E-03    -58.3356E-03    -58.1715E-03     116.412E-03    -58.2402E-03     2.79390E-03     122.864E-03     214.604E+06    -36.7078E+06    -58.9264E+06    -261.524E+06    -58.9562E+06    -261.494E+06    -36.7078E+06     1.35419E+06
             356     56.1133E-03     2.83211E-03     56.0418E-03     116.289E-03    -58.0362E-03    -58.2526E-03    -58.1269E-03     116.284E-03    -58.1573E-03     1.67791E-03     120.100E-03     213.200E+06    -51.5185E+06    -64.2201E+06    -270.732E+06    -64.2316E+06    -270.721E+06    -51.5185E+06     697.750E+03
             357     56.0721E-03     1.88693E-03     56.0404E-03     116.101E-03    -57.9504E-03    -58.1506E-03    -57.9623E-03     116.099E-03    -58.1368E-03     1.04372E-03     118.241E-03     213.227E+06    -62.1349E+06    -67.5667E+06    -278.015E+06    -67.5688E+06    -278.013E+06    -62.1349E+06     82.5718E+03
             358     56.0474E-03     944.536E-06     56.0394E-03     116.276E-03    -57.9099E-03    -58.3657E-03    -58.2718E-03     116.274E-03    -58.0024E-03     807.756E-06     117.324E-03     211.918E+06    -67.4100E+06    -71.4458E+06    -281.311E+06    -70.1677E+06    -281.309E+06    -68.6906E+06     62.3200E+03
             359     57.8048E-03     16.0534E-03     55.5309E-03     137.813E-03    -58.1140E-03    -79.6986E-03    -56.4067E-03     114.521E-03    -58.1140E-03     127.597E-03     428.213E-03     134.912E+06     130.911E+06     123.854E+06    -7.35372E+06    -7.33846E+06     130.896E+06     123.854E+06    -13.6214E+03
             360     57.3517E-03     15.1082E-03     55.3259E-03     144.088E-03    -58.0501E-03    -86.0383E-03    -56.3507E-03     114.401E-03    -58.0501E-03     152.927E-03     425.381E-03     128.575E+06     124.066E+06     97.9136E+06    -14.6893E+06    -14.6685E+06     124.045E+06     97.9136E+06    -1.09990E+06
             361     56.9750E-03     14.1634E-03     55.1865E-03     128.055E-03    -57.8921E-03    -70.1633E-03    -56.5328E-03     114.425E-03    -57.8921E-03     97.1035E-03     317.339E-03     118.622E+06     113.325E+06     55.7093E+06    -21.7764E+06    -21.7542E+06     113.303E+06     55.7093E+06     325.879E+03
             362     56.6745E-03     13.2200E-03     55.1111E-03     119.268E-03    -57.7364E-03    -61.5311E-03    -56.5505E-03     114.287E-03    -57.7364E-03     58.4165E-03     257.132E-03     116.025E+06     105.629E+06     22.7847E+06    -26.4066E+06    -26.3837E+06     105.606E+06     22.7847E+06     1.70907E+06
             363     56.4116E-03     12.2734E-03     55.0603E-03     116.767E-03    -57.6819E-03    -59.0855E-03    -56.6318E-03     114.314E-03    -57.6819E-03     40.4738E-03     218.892E-03     80.1764E+06     60.7612E+06    -99.5579E+03    -29.7376E+06    -29.6694E+06     60.6930E+06    -99.5579E+03     1.76856E+06
             364     56.1798E-03     11.3283E-03     55.0258E-03     115.743E-03    -57.5680E-03    -58.1749E-03    -56.7832E-03     114.552E-03    -57.7687E-03     28.3191E-03     193.703E-03     43.3515E+06     6.85411E+06    -19.9424E+06    -42.8770E+06    -30.9673E+06    -17.0021E+06    -7.99592E+06     2.88442E+06
             365     55.9719E-03     10.3846E-03     55.0002E-03     115.349E-03    -57.4517E-03    -57.8974E-03    -56.7153E-03     114.613E-03    -57.8974E-03     22.4442E-03     176.442E-03     60.8283E+06    -5.95800E+06    -28.9542E+06    -74.3703E+06    -29.7344E+06    -73.5901E+06    -5.95800E+06     801.151E+03
             366     55.7829E-03     9.43910E-03     54.9785E-03     115.638E-03    -57.6483E-03    -57.9901E-03    -57.1680E-03     115.158E-03    -57.9901E-03     17.9766E-03     163.267E-03     95.7059E+06    -7.81836E+06    -29.6636E+06    -112.475E+06    -29.7565E+06    -112.382E+06    -7.81836E+06    -2.50456E+06
             367     55.6132E-03     8.49614E-03     54.9604E-03     115.844E-03    -57.7552E-03    -58.0887E-03    -57.5095E-03     115.585E-03    -58.0755E-03     13.2780E-03     152.137E-03     129.967E+06    -8.43210E+06    -33.6277E+06    -149.141E+06    -33.7424E+06    -149.026E+06    -8.43210E+06    -406.726E+03
             368     55.4658E-03     7.55060E-03     54.9494E-03     115.929E-03    -57.7376E-03    -58.1919E-03    -57.6161E-03     115.773E-03    -58.1574E-03     10.3257E-03     143.645E-03     161.401E+06    -7.97971E+06    -39.6774E+06    -182.854E+06    -39.7667E+06    -182.764E+06    -7.97971E+06     1.57191E+06
             369     55.3354E-03     6.60693E-03     54.9396E-03     116.095E-03    -57.8749E-03    -58.2205E-03    -57.8040E-03     116.003E-03    -58.1993E-03     7.88595E-03     136.743E-03     182.228E+06    -11.3948E+06    -44.9118E+06    -208.024E+06    -44.9343E+06    -208.002E+06    -11.3948E+06     681.561E+03
             370     55.2230E-03     5.66366E-03     54.9318E-03     116.144E-03    -57.9484E-03    -58.1952E-03    -57.8992E-03     116.094E-03    -58.1952E-03     5.78310E-03     130.832E-03     193.404E+06    -19.8906E+06    -50.2227E+06    -226.650E+06    -50.2293E+06    -226.643E+06    -19.8906E+06    -19.2073E+03
             371     55.1294E-03     4.71915E-03     54.9270E-03     116.215E-03    -58.0257E-03    -58.1895E-03    -58.0039E-03     116.188E-03    -58.1844E-03     4.24515E-03     126.260E-03     206.284E+06    -28.2321E+06    -55.3036E+06    -246.694E+06    -55.3203E+06    -246.678E+06    -28.2321E+06     482.202E+03
             372     55.0516E-03     3.77578E-03     54.9219E-03     116.165E-03    -57.9388E-03    -58.2257E-03    -57.9914E-03     116.151E-03    -58.1600E-03     2.96156E-03     122.606E-03     214.457E+06    -36.5749E+06    -58.6137E+06    -261.168E+06    -58.6360E+06    -261.146E+06    -36.5749E+06     1.34529E+06
             373     54.9930E-03     2.83156E-03     54.9200E-03     116.141E-03    -57.8431E-03    -58.2983E-03    -58.0299E-03     116.136E-03    -58.1059E-03     1.86439E-03     120.004E-03     213.787E+06    -48.8787E+06    -62.9850E+06    -269.336E+06    -62.9979E+06    -269.323E+06    -48.8787E+06     1.11826E+06
             374     54.9517E-03     1.88843E-03     54.9193E-03     116.093E-03    -57.9090E-03    -58.1836E-03    -58.0521E-03     116.090E-03    -58.0381E-03     1.17892E-03     118.207E-03     212.734E+06    -60.6912E+06    -68.3324E+06    -277.127E+06    -68.3407E+06    -277.119E+06    -60.6912E+06     704.944E+03
             375     54.9245E-03     943.288E-06     54.9164E-03     115.952E-03    -57.8366E-03    -58.1158E-03    -58.0396E-03     115.951E-03    -57.9114E-03     835.356E-06     117.080E-03     210.836E+06    -68.2153E+06    -73.2094E+06    -281.503E+06    -71.9303E+06    -281.502E+06    -69.4959E+06     256.308E+03
             376     56.7260E-03     16.0570E-03     54.4060E-03     137.950E-03    -58.1046E-03    -79.8450E-03    -56.5799E-03     114.684E-03    -58.1046E-03     127.396E-03     428.395E-03     134.603E+06     131.479E+06     124.570E+06    -6.41897E+06    -6.41549E+06     131.476E+06     124.570E+06     109.700E+03
             377     56.2758E-03     15.1106E-03     54.2092E-03     144.687E-03    -58.0243E-03    -86.6628E-03    -56.6592E-03     114.684E-03    -58.0243E-03     154.144E-03     425.770E-03     127.876E+06     123.678E+06     97.6804E+06    -14.2369E+06    -14.2068E+06     123.648E+06     97.6804E+06     1.17945E+06
             378     55.8863E-03     14.1626E-03     54.0620E-03     128.004E-03    -57.8633E-03    -70.1405E-03    -56.3591E-03     114.222E-03    -57.8633E-03     97.3912E-03     317.114E-03     117.556E+06     112.755E+06     55.1700E+06    -21.2304E+06    -21.1941E+06     112.718E+06     55.1700E+06     1.32062E+06
             379     55.5847E-03     13.2165E-03     53.9906E-03     118.529E-03    -57.7330E-03    -60.7963E-03    -55.9929E-03     113.726E-03    -57.7330E-03     57.1076E-03     256.906E-03     115.368E+06     104.918E+06     22.0846E+06    -26.2425E+06    -26.2259E+06     104.901E+06     22.0846E+06     1.12227E+06
             380     55.3157E-03     12.2728E-03     53.9370E-03     116.612E-03    -57.7042E-03    -58.9079E-03    -56.5776E-03     114.282E-03    -57.7042E-03     39.3116E-03     219.347E-03     77.8412E+06     59.2380E+06     87.5005E+03    -28.5768E+06    -28.5026E+06     59.1638E+06     87.5005E+03     1.89285E+06
             381     55.0814E-03     11.3298E-03     53.9036E-03     115.717E-03    -57.6690E-03    -58.0479E-03    -56.8468E-03     114.627E-03    -57.7803E-03     27.1391E-03     193.986E-03     36.7862E+06     4.55629E+06    -18.2339E+06    -37.6486E+06    -28.4450E+06    -14.5439E+06    -8.33730E+06     25.9163E+03
             382     54.8708E-03     10.3839E-03     53.8793E-03     115.768E-03    -57.7643E-03    -58.0037E-03    -57.1643E-03     115.045E-03    -57.8811E-03     22.3339E-03     177.026E-03     56.0119E+06    -6.97020E+06    -27.5590E+06    -69.6966E+06    -27.9992E+06    -69.2563E+06    -6.97020E+06    -2.88604E+06
             383     54.6764E-03     9.44079E-03     53.8552E-03     115.829E-03    -57.7614E-03    -58.0677E-03    -57.3797E-03     115.345E-03    -57.9657E-03     17.9448E-03     163.518E-03     98.9451E+06    -7.05567E+06    -30.6701E+06    -115.596E+06    -30.9010E+06    -115.365E+06    -7.05567E+06    -565.086E+03
             384     54.5059E-03     8.49527E-03     53.8398E-03     115.627E-03    -57.5819E-03    -58.0448E-03    -57.3374E-03     115.382E-03    -58.0448E-03     12.9086E-03     151.958E-03     131.407E+06    -7.82466E+06    -36.2072E+06    -151.032E+06    -36.4048E+06    -150.835E+06    -7.82466E+06     2.63939E+06
             385     54.3542E-03     7.55150E-03     53.8271E-03     115.889E-03    -57.7422E-03    -58.1470E-03    -57.6175E-03     115.743E-03    -58.1258E-03     9.94236E-03     143.695E-03     161.003E+06    -6.56440E+06    -39.6641E+06    -181.482E+06    -39.7316E+06    -181.415E+06    -6.56440E+06     1.44288E+06
             386     54.2209E-03     6.60798E-03     53.8167E-03     116.045E-03    -57.8591E-03    -58.1864E-03    -57.7970E-03     115.962E-03    -58.1651E-03     7.55631E-03     136.739E-03     183.364E+06    -9.21852E+06    -43.4274E+06    -207.251E+06    -43.4407E+06    -207.238E+06    -9.21852E+06     972.311E+03
             387     54.1080E-03     5.66319E-03     53.8108E-03     116.097E-03    -57.9376E-03    -58.1595E-03    -57.8926E-03     116.045E-03    -58.1522E-03     5.98446E-03     130.800E-03     193.320E+06    -18.4492E+06    -49.7049E+06    -225.477E+06    -49.7182E+06    -225.463E+06    -18.4492E+06     1.11550E+06
             388     54.0104E-03     4.72004E-03     53.8038E-03     116.108E-03    -57.9701E-03    -58.1379E-03    -57.9535E-03     116.079E-03    -58.1255E-03     4.39282E-03     126.119E-03     205.269E+06    -29.6794E+06    -55.5611E+06    -246.627E+06    -55.5669E+06    -246.621E+06    -29.6794E+06    -404.842E+03
             389     53.9336E-03     3.77589E-03     53.8012E-03     115.917E-03    -57.7948E-03    -58.1223E-03    -57.7863E-03     115.904E-03    -58.1173E-03     3.01814E-03     122.311E-03     212.832E+06    -39.5469E+06    -59.7751E+06    -261.761E+06    -59.7861E+06    -261.750E+06    -39.5469E+06    -429.402E+03
             390     53.8726E-03     2.83121E-03     53.7981E-03     116.057E-03    -57.8071E-03    -58.2495E-03    -57.9319E-03     116.050E-03    -58.1178E-03     2.15641E-03     119.875E-03     213.775E+06    -48.4859E+06    -63.1585E+06    -269.198E+06    -63.1761E+06    -269.181E+06    -48.4859E+06     1.14971E+06
             391     53.8291E-03     1.88772E-03     53.7960E-03     116.206E-03    -57.8821E-03    -58.3235E-03    -58.1578E-03     116.203E-03    -58.0454E-03     1.11214E-03     118.283E-03     212.878E+06    -58.8960E+06    -66.9321E+06    -275.658E+06    -66.9424E+06    -275.648E+06    -58.8960E+06     1.19042E+06
             392     53.8058E-03     944.566E-06     53.7975E-03     115.918E-03    -57.7523E-03    -58.1653E-03    -58.1150E-03     115.915E-03    -57.7999E-03     1.11677E-03     117.112E-03     210.824E+06    -66.4362E+06    -70.4849E+06    -279.253E+06    -69.9333E+06    -279.251E+06    -66.9900E+06    -164.664E+03
             393     55.6562E-03     16.0528E-03     53.2909E-03     138.079E-03    -58.1496E-03    -79.9297E-03    -56.2972E-03     114.447E-03    -58.1496E-03     127.766E-03     428.894E-03     135.827E+06     130.485E+06     123.517E+06    -8.67888E+06    -8.67373E+06      130.48E+06     123.517E+06    -146.953E+03
             394     55.1883E-03     15.1066E-03     53.0805E-03     146.060E-03    -58.0531E-03    -88.0065E-03    -57.6683E-03     115.721E-03    -58.0531E-03     155.619E-03     426.867E-03     128.846E+06     122.014E+06     96.3230E+06    -16.7387E+06    -16.7072E+06     121.982E+06     96.3230E+06     1.37141E+06
             395     54.8067E-03     14.1662E-03     52.9443E-03     128.367E-03    -57.8322E-03    -70.5352E-03    -57.0750E-03     114.907E-03    -57.8322E-03     96.7756E-03     317.522E-03     118.297E+06     113.318E+06     54.1224E+06    -21.3518E+06    -21.3156E+06     113.282E+06     54.1224E+06     1.39528E+06
             396     54.4950E-03     13.2202E-03     52.8671E-03     118.435E-03    -57.6718E-03    -60.7635E-03    -55.9403E-03     113.612E-03    -57.6718E-03     57.2040E-03     256.905E-03     113.534E+06     105.014E+06     20.8331E+06    -23.4651E+06    -23.4498E+06     104.998E+06     20.8331E+06     1.05702E+06
             397     54.2236E-03     12.2750E-03     52.8159E-03     116.164E-03    -57.6572E-03    -58.5064E-03    -56.1835E-03     113.841E-03    -57.6572E-03     39.1169E-03     218.992E-03     76.6169E+06     60.5170E+06    -857.342E+03    -25.2175E+06    -25.1849E+06     60.4843E+06    -857.342E+03     553.503E+03
             398     53.9835E-03     11.3278E-03     52.7817E-03     115.551E-03    -57.7559E-03    -57.7956E-03    -56.7056E-03     114.461E-03    -57.7559E-03     27.1522E-03     193.995E-03     35.6886E+06     6.75709E+06    -18.4895E+06    -33.9936E+06    -26.8905E+06    -10.3829E+06    -8.45259E+06    -1.81520E+06
             399     53.7694E-03     10.3851E-03     52.7569E-03     115.934E-03    -57.8707E-03    -58.0632E-03    -57.3327E-03     115.203E-03    -57.8707E-03     22.4652E-03     177.391E-03     58.3564E+06    -7.04600E+06    -30.3819E+06    -72.7006E+06    -31.0783E+06    -72.0042E+06    -7.04600E+06    -738.820E+03
             400     53.5712E-03     9.44008E-03     52.7329E-03     115.894E-03    -57.7945E-03    -58.0998E-03    -57.4865E-03     115.427E-03    -57.9403E-03     17.6017E-03     163.594E-03     100.519E+06    -7.73829E+06    -36.5738E+06    -119.436E+06    -36.9464E+06    -119.063E+06    -7.73829E+06     2.99257E+06
             401     53.3991E-03     8.49665E-03     52.7188E-03     115.651E-03    -57.6692E-03    -57.9822E-03    -57.4283E-03     115.410E-03    -57.9816E-03     12.8956E-03     151.986E-03     125.012E+06    -9.16077E+06    -39.7337E+06    -146.555E+06    -39.8602E+06    -146.429E+06    -9.16077E+06     1.71986E+06
             402     53.2423E-03     7.55238E-03     52.7039E-03     115.630E-03    -57.5720E-03    -58.0584E-03    -57.4137E-03     115.472E-03    -58.0584E-03     10.3329E-03     143.360E-03     158.018E+06    -9.13987E+06    -41.2196E+06    -180.683E+06    -41.2293E+06    -180.674E+06    -9.13987E+06    -593.720E+03
             403     53.1091E-03     6.60742E-03     52.6965E-03     115.829E-03    -57.7048E-03    -58.1246E-03    -57.6120E-03     115.737E-03    -58.1246E-03     7.98203E-03     136.475E-03     183.993E+06    -10.9749E+06    -43.7820E+06    -209.148E+06    -43.7960E+06    -209.134E+06    -10.9749E+06     366.446E+03
             404     52.9908E-03     5.66397E-03     52.6872E-03     116.022E-03    -57.8804E-03    -58.1414E-03    -57.8309E-03     115.965E-03    -58.1340E-03     6.18849E-03     130.738E-03     193.994E+06    -17.1840E+06    -47.1544E+06    -224.402E+06    -47.1635E+06    -224.392E+06    -17.1840E+06     980.881E+03
             405     52.8940E-03     4.71965E-03     52.6830E-03     116.010E-03    -57.8500E-03    -58.1603E-03    -57.8509E-03     115.982E-03    -58.1312E-03     4.36443E-03     126.068E-03     207.110E+06    -26.3479E+06    -51.8774E+06    -245.014E+06    -51.8895E+06    -245.002E+06    -26.3479E+06     685.456E+03
             406     52.8141E-03     3.77526E-03     52.6790E-03     116.082E-03    -57.9563E-03    -58.1257E-03    -57.9716E-03     116.069E-03    -58.0975E-03     2.89619E-03     122.477E-03     213.212E+06    -39.6434E+06    -58.5795E+06    -261.662E+06    -58.5923E+06    -261.649E+06    -39.6434E+06    -144.515E+03
             407     52.7527E-03     2.83227E-03     52.6766E-03     115.931E-03    -57.8529E-03    -58.0784E-03    -57.8540E-03     115.926E-03    -58.0719E-03     1.91912E-03     119.689E-03     212.964E+06    -51.1087E+06    -63.6429E+06    -270.044E+06    -63.6541E+06    -270.033E+06    -51.1087E+06    -516.208E+03
             408     52.7084E-03     1.88733E-03     52.6746E-03     116.001E-03    -57.7607E-03    -58.2408E-03    -57.9047E-03     115.999E-03    -58.0944E-03     1.17878E-03     118.040E-03     212.927E+06    -58.6546E+06    -65.4271E+06    -274.868E+06    -65.4363E+06    -274.859E+06    -58.6546E+06    -83.6518E+03
             409     52.6822E-03     943.844E-06     52.6738E-03     116.187E-03    -57.7785E-03    -58.4090E-03    -58.2780E-03     116.185E-03    -57.9069E-03     782.127E-06     117.229E-03     210.979E+06    -64.6424E+06    -67.1032E+06    -276.836E+06    -66.5521E+06    -276.833E+06    -65.1961E+06    -243.799E+03
             410     54.5816E-03     16.0531E-03     52.1675E-03     137.829E-03    -58.1624E-03    -79.6670E-03    -56.4482E-03     114.611E-03    -58.1624E-03     126.970E-03     428.739E-03     133.367E+06     129.418E+06     123.401E+06    -6.84976E+06    -6.84540E+06     129.414E+06     123.401E+06     311.131E+03
             411     54.1116E-03     15.1095E-03     51.9592E-03     145.673E-03    -58.0583E-03    -87.6148E-03    -57.7182E-03     115.776E-03    -58.0583E-03     154.542E-03     425.796E-03     126.671E+06     121.407E+06     96.6290E+06    -14.6549E+06    -14.6511E+06     121.404E+06     96.6290E+06     613.801E+03
             412     53.7184E-03     14.1623E-03     51.8179E-03     128.279E-03    -57.8388E-03    -70.4398E-03    -56.9797E-03     114.818E-03    -57.8388E-03     96.6268E-03     317.651E-03     118.506E+06     114.405E+06     54.7152E+06    -20.6202E+06    -20.6112E+06     114.396E+06     54.7152E+06     618.078E+03
             413     53.4096E-03     13.2194E-03     51.7478E-03     118.952E-03    -57.6715E-03    -61.2801E-03    -56.3423E-03     114.014E-03    -57.6715E-03     58.2046E-03     257.544E-03     114.115E+06     105.490E+06     21.6738E+06    -23.8558E+06    -23.8403E+06     105.474E+06     21.6738E+06     460.714E+03
             414     53.1300E-03     12.2731E-03     51.6931E-03     116.280E-03    -57.6433E-03    -58.6370E-03    -56.2394E-03     113.883E-03    -57.6434E-03     39.5791E-03     218.857E-03     78.7581E+06     63.6247E+06     1.59496E+06    -24.7932E+06    -24.7483E+06     63.5798E+06     1.59496E+06    -812.277E+03
             415     52.8892E-03     11.3304E-03     51.6613E-03     115.532E-03    -57.7470E-03    -57.7853E-03    -56.6815E-03     114.429E-03    -57.7471E-03     27.4289E-03     194.305E-03     42.1219E+06     10.1915E+06    -17.7863E+06    -38.0937E+06    -27.5613E+06    -11.9557E+06    -6.17148E+06     291.415E+03
             416     52.6670E-03     10.3843E-03     51.6332E-03     115.841E-03    -57.8734E-03    -57.9671E-03    -57.2231E-03     115.097E-03    -57.8734E-03     22.5635E-03     177.243E-03     64.6801E+06    -4.88312E+06    -32.5288E+06    -78.4308E+06    -33.5776E+06    -77.3819E+06    -4.88312E+06     4.70341E+06
             417     52.4687E-03     9.44120E-03     51.6123E-03     115.857E-03    -57.8718E-03    -57.9847E-03    -57.4686E-03     115.393E-03    -57.9245E-03     17.7198E-03     163.442E-03     97.5299E+06    -6.25517E+06    -36.6266E+06    -115.274E+06    -37.0074E+06    -114.894E+06    -6.25517E+06     2.93739E+06
             418     52.2900E-03     8.49663E-03     51.5951E-03     115.632E-03    -57.6688E-03    -57.9635E-03    -57.4058E-03     115.369E-03    -57.9629E-03     13.3701E-03     151.968E-03     123.687E+06    -7.80781E+06    -36.9689E+06    -143.402E+06    -37.0348E+06    -143.336E+06    -7.80781E+06    -1.77600E+06
             419     52.1345E-03     7.55198E-03     51.5846E-03     115.621E-03    -57.5737E-03    -58.0472E-03    -57.4100E-03     115.457E-03    -58.0472E-03     10.5806E-03     143.290E-03     160.691E+06    -7.74841E+06    -38.5952E+06    -181.585E+06    -38.6351E+06    -181.546E+06    -7.74841E+06    -1.59728E+06
             420     51.9946E-03     6.60784E-03     51.5730E-03     115.792E-03    -57.6855E-03    -58.1069E-03    -57.5850E-03     115.692E-03    -58.1069E-03     8.22717E-03     136.414E-03     184.738E+06    -11.5487E+06    -42.8306E+06    -209.905E+06    -42.8443E+06    -209.892E+06    -11.5487E+06    -826.963E+03
             421     51.8765E-03     5.66370E-03     51.5664E-03     115.898E-03    -57.7723E-03    -58.1261E-03    -57.7169E-03     115.843E-03    -58.1261E-03     6.13964E-03     130.682E-03     193.871E+06    -18.2688E+06    -47.3778E+06    -225.040E+06    -47.3898E+06    -225.028E+06    -18.2688E+06     21.3527E+03
             422     51.7764E-03     4.71934E-03     51.5608E-03     116.108E-03    -57.9588E-03    -58.1491E-03    -57.9521E-03     116.079E-03    -58.1273E-03     4.31480E-03     126.190E-03     206.785E+06    -25.9865E+06    -51.9342E+06    -244.504E+06    -51.9473E+06    -244.491E+06    -25.9865E+06     959.730E+03
             423     51.6949E-03     3.77637E-03     51.5568E-03     116.162E-03    -58.0549E-03    -58.1073E-03    -58.0720E-03     116.151E-03    -58.0790E-03     2.72023E-03     122.590E-03     215.024E+06    -36.0929E+06    -56.3003E+06    -260.469E+06    -56.3131E+06    -260.457E+06    -36.0929E+06     808.051E+03
             424     51.6328E-03     2.83165E-03     51.5551E-03     115.960E-03    -57.8943E-03    -58.0662E-03    -57.9518E-03     115.956E-03    -58.0039E-03     1.67511E-03     119.745E-03      213.83E+06    -48.2908E+06    -60.7392E+06    -268.037E+06    -60.7494E+06    -268.026E+06    -48.2908E+06    -394.583E+03
             425     51.5879E-03     1.88817E-03     51.5534E-03     115.780E-03    -57.7306E-03    -58.0497E-03    -57.7845E-03     115.778E-03    -57.9940E-03     1.05167E-03     117.821E-03     212.997E+06    -59.5947E+06    -65.6176E+06    -275.526E+06    -65.6259E+06    -275.517E+06    -59.5947E+06    -1.22876E+06
             426     51.5604E-03     943.203E-06     51.5518E-03     115.997E-03    -57.7334E-03    -58.2631E-03    -58.0886E-03     115.996E-03    -57.9072E-03     312.205E-06     116.918E-03     211.051E+06    -66.6756E+06    -68.6131E+06    -278.684E+06    -68.6157E+06    -278.681E+06    -66.6756E+06    -439.942E+03
             427     53.5067E-03     16.0541E-03     51.0415E-03     138.020E-03    -58.0852E-03    -79.9350E-03    -56.9741E-03     115.059E-03    -58.0852E-03     126.247E-03     428.832E-03     133.485E+06     129.121E+06     124.144E+06    -6.78088E+06    -6.77856E+06     129.118E+06     124.144E+06     54.9795E+03
             428     53.0362E-03     15.1092E-03     50.8384E-03     144.436E-03    -57.9879E-03    -86.4479E-03    -56.8921E-03     114.880E-03    -57.9879E-03     152.901E-03     424.960E-03     125.821E+06     121.000E+06     98.8198E+06    -13.2929E+06    -13.2860E+06     120.993E+06     98.8198E+06     527.915E+03
             429     52.6383E-03     14.1645E-03     50.6967E-03     127.261E-03    -57.8191E-03    -69.4423E-03    -56.1838E-03     114.003E-03    -57.8191E-03     95.2823E-03     317.008E-03     118.438E+06     115.720E+06     58.5371E+06    -19.0971E+06    -19.0904E+06     115.713E+06     58.5371E+06     419.498E+03
             430     52.3211E-03     13.2182E-03     50.6239E-03     118.371E-03    -57.6758E-03    -60.6949E-03    -56.0034E-03     113.679E-03    -57.6758E-03     56.5054E-03     257.377E-03     116.121E+06     107.562E+06     23.2090E+06    -23.9034E+06    -23.8793E+06     107.538E+06     23.2090E+06    -1.29709E+06
             431     52.0406E-03     12.2756E-03     50.5721E-03     116.420E-03    -57.6462E-03    -58.7734E-03    -56.4138E-03     114.060E-03    -57.6463E-03     39.6514E-03     219.101E-03     78.8164E+06     61.7198E+06     531.084E+03    -26.6674E+06    -26.5663E+06     61.6187E+06     531.084E+03    -789.428E+03
             432     51.7931E-03     11.3285E-03     50.5390E-03     115.786E-03    -57.7544E-03    -58.0312E-03    -56.8722E-03     114.627E-03    -57.7545E-03     27.9015E-03     194.432E-03     44.7419E+06     9.55477E+06    -18.3819E+06    -41.9698E+06    -29.7294E+06    -16.7154E+06    -4.35210E+06     3.84686E+06
             433     51.5685E-03     10.3855E-03     50.5119E-03     115.613E-03    -57.7011E-03    -57.9114E-03    -57.0010E-03     114.864E-03    -57.8625E-03     22.6336E-03     176.772E-03     65.1269E+06    -3.78107E+06    -30.0320E+06    -77.2274E+06    -31.2509E+06    -76.0085E+06    -3.78107E+06     4.42430E+06
             434     51.3644E-03     9.44014E-03     50.4894E-03     115.671E-03    -57.7107E-03    -57.9599E-03    -57.2467E-03     115.172E-03    -57.9248E-03     18.2233E-03     163.329E-03     94.6484E+06    -4.93066E+06    -30.0178E+06    -109.508E+06    -30.2277E+06    -109.298E+06    -4.93066E+06     100.024E+03
             435     51.1843E-03     8.49610E-03     50.4742E-03     115.787E-03    -57.7697E-03    -58.0175E-03    -57.5492E-03     115.534E-03    -57.9852E-03     13.0825E-03     152.211E-03     125.415E+06    -5.78089E+06    -32.8629E+06    -142.473E+06    -32.9228E+06    -142.413E+06    -5.78089E+06    -1.83227E+06
             436     51.0240E-03     7.55212E-03     50.4620E-03     115.785E-03    -57.7373E-03    -58.0479E-03    -57.5755E-03     115.623E-03    -58.0479E-03     10.5728E-03     143.469E-03     161.129E+06    -8.44355E+06    -38.5076E+06    -182.439E+06    -38.5400E+06    -182.407E+06    -8.44355E+06    -1.04865E+06
             437     50.8826E-03     6.60824E-03     50.4517E-03     115.853E-03    -57.7561E-03    -58.0970E-03    -57.6585E-03     115.750E-03    -58.0917E-03     8.28751E-03     136.492E-03     184.372E+06    -12.1189E+06    -43.2146E+06    -210.036E+06    -43.2245E+06    -210.026E+06    -12.1189E+06    -292.902E+03
             438     50.7619E-03     5.66342E-03     50.4450E-03     115.910E-03    -57.8024E-03    -58.1080E-03    -57.7554E-03     115.858E-03    -58.1027E-03     5.98265E-03     130.670E-03     194.131E+06    -18.1722E+06    -47.5923E+06    -225.329E+06    -47.6117E+06    -225.310E+06    -18.1722E+06    -374.235E+03
             439     50.6584E-03     4.72016E-03     50.4380E-03     115.986E-03    -57.8811E-03    -58.1050E-03    -57.8525E-03     115.958E-03    -58.1050E-03     4.34105E-03     126.081E-03     206.613E+06    -26.1304E+06    -52.4672E+06    -244.629E+06    -52.4790E+06    -244.617E+06    -26.1304E+06    -62.0684E+03
             440     50.5769E-03     3.77552E-03     50.4358E-03     116.073E-03    -57.9474E-03    -58.1255E-03    -57.9815E-03     116.060E-03    -58.0787E-03     2.93397E-03     122.524E-03     214.694E+06    -35.1612E+06    -56.8353E+06    -259.859E+06    -56.8477E+06    -259.846E+06    -35.1612E+06    -131.372E+03
             441     50.5120E-03     2.83236E-03     50.4326E-03     116.102E-03    -57.9641E-03    -58.1376E-03    -58.1124E-03     116.097E-03    -57.9842E-03     1.72911E-03     119.873E-03     213.569E+06    -46.5446E+06    -60.7754E+06    -266.829E+06    -60.7889E+06    -266.816E+06    -46.5446E+06    -144.570E+03
             442     50.4677E-03     1.88829E-03     50.4324E-03     115.813E-03    -57.8219E-03    -57.9909E-03    -57.9440E-03     115.811E-03    -57.8672E-03     1.01374E-03     117.839E-03     213.351E+06    -58.3509E+06    -65.5704E+06    -275.209E+06    -65.5788E+06    -275.200E+06    -58.3509E+06     139.916E+03
             443     50.4393E-03     944.820E-06     50.4304E-03     115.579E-03    -57.7357E-03    -57.8436E-03    -57.7787E-03     115.577E-03    -57.7979E-03     1.10936E-03     116.604E-03     211.378E+06    -67.4636E+06    -71.2409E+06    -280.700E+06    -70.1778E+06    -280.679E+06    -68.5476E+06     982.732E+03
             444     52.4446E-03     16.0594E-03     49.9252E-03     138.842E-03    -58.0302E-03    -80.8119E-03    -57.4820E-03     115.512E-03    -58.0302E-03     127.383E-03     429.206E-03     134.108E+06     129.219E+06     123.854E+06    -7.48842E+06    -7.47625E+06     129.207E+06     123.854E+06    -497.295E+03
             445     51.9604E-03     15.1119E-03     49.7143E-03     144.823E-03    -57.9281E-03    -86.8952E-03    -56.9929E-03     114.921E-03    -57.9281E-03     153.875E-03     425.250E-03     126.755E+06     121.869E+06     101.011E+06    -13.1029E+06    -13.0934E+06     121.860E+06     101.011E+06     191.720E+03
             446     51.5621E-03     14.1659E-03     49.5780E-03     126.952E-03    -57.7730E-03    -69.1792E-03    -55.7098E-03     113.483E-03    -57.7730E-03     96.3701E-03     316.078E-03     118.716E+06     116.641E+06     61.0756E+06    -18.0594E+06    -18.0527E+06     116.634E+06     61.0756E+06     87.6858E+03
             447     51.2357E-03     13.2207E-03     49.5007E-03     118.030E-03    -57.6575E-03    -60.3727E-03    -55.3967E-03     113.054E-03    -57.6575E-03     57.8112E-03     256.612E-03     115.768E+06     107.840E+06     23.4287E+06    -23.1455E+06    -23.0981E+06     107.793E+06     23.4287E+06     127.749E+03
             448     50.9529E-03     12.2722E-03     49.4529E-03     116.480E-03    -57.6501E-03    -58.8303E-03    -56.4467E-03     114.097E-03    -57.6501E-03     39.9212E-03     219.521E-03     77.3445E+06     57.6566E+06    -1.37764E+06    -29.0911E+06    -28.9652E+06     57.5308E+06    -1.37764E+06     1.42284E+06
             449     50.6961E-03     11.3304E-03     49.4137E-03     115.885E-03    -57.6946E-03    -58.1902E-03    -56.9932E-03     114.738E-03    -57.7449E-03     27.6916E-03     194.389E-03     40.4126E+06     5.38624E+06    -18.5508E+06    -41.2660E+06    -30.4352E+06      -17.77E+06    -6.22528E+06     1.81787E+06
             450     50.4727E-03     10.3850E-03     49.3928E-03     115.570E-03    -57.6231E-03    -57.9470E-03    -57.0156E-03     114.850E-03    -57.8348E-03     22.2482E-03     176.857E-03     58.8071E+06    -4.68846E+06    -27.1500E+06    -70.6998E+06    -27.8875E+06    -69.9622E+06    -4.68846E+06    -594.736E+03
             451     50.2610E-03     9.44008E-03     49.3665E-03     115.545E-03    -57.5187E-03    -58.0266E-03    -57.1453E-03     115.053E-03    -57.9074E-03     18.0342E-03     163.237E-03     93.4164E+06    -6.46263E+06    -27.4527E+06    -108.502E+06    -27.5162E+06    -108.438E+06    -6.46263E+06    -1.85236E+06
             452     50.0782E-03     8.49641E-03     49.3522E-03     115.727E-03    -57.6963E-03    -58.0312E-03    -57.4888E-03     115.488E-03    -57.9989E-03     12.7918E-03     152.182E-03     129.433E+06    -4.20199E+06    -30.2807E+06    -144.622E+06    -30.3809E+06    -144.522E+06    -4.20199E+06     787.745E+03
             453     49.9147E-03     7.55215E-03     49.3400E-03     115.900E-03    -57.8302E-03    -58.0694E-03    -57.6726E-03     115.742E-03    -58.0694E-03     10.4218E-03     143.686E-03     163.390E+06    -4.26720E+06    -36.2132E+06    -181.220E+06    -36.2954E+06    -181.138E+06    -4.26720E+06     1.80612E+06
             454     49.7709E-03     6.60749E-03     49.3303E-03     115.970E-03    -57.8758E-03    -58.0940E-03    -57.7786E-03     115.867E-03    -58.0887E-03     8.34842E-03     136.588E-03     184.514E+06    -10.1143E+06    -42.4642E+06    -208.645E+06    -42.4765E+06    -208.633E+06    -10.1143E+06     33.0096E+03
             455     49.6462E-03     5.66472E-03     49.3220E-03     115.954E-03    -57.8719E-03    -58.0820E-03    -57.8227E-03     115.899E-03    -58.0767E-03     6.05757E-03     130.645E-03     194.596E+06    -17.8850E+06    -47.3498E+06    -225.519E+06    -47.3659E+06    -225.503E+06    -17.8850E+06    -431.447E+03
             456     49.5431E-03     4.71960E-03     49.3178E-03     115.785E-03    -57.7021E-03    -58.0834E-03    -57.6748E-03     115.758E-03    -58.0834E-03     4.30285E-03     125.915E-03     206.554E+06    -26.5698E+06    -52.2397E+06    -244.740E+06    -52.2546E+06    -244.725E+06    -26.5698E+06    -527.368E+03
             457     49.4571E-03     3.77585E-03     49.3128E-03     115.867E-03    -57.7223E-03    -58.1448E-03    -57.7547E-03     115.853E-03    -58.0980E-03     3.12171E-03     122.332E-03     213.467E+06    -37.1497E+06    -57.2180E+06    -259.917E+06    -57.2315E+06    -259.904E+06    -37.1497E+06    -919.750E+03
             458     49.3927E-03     2.83170E-03     49.3115E-03     116.046E-03    -57.8684E-03    -58.1778E-03    -57.9589E-03     116.039E-03    -58.0800E-03     2.17236E-03     119.810E-03     212.907E+06    -48.7763E+06    -62.0785E+06    -268.001E+06    -62.0871E+06    -267.992E+06    -48.7763E+06    -441.124E+03
             459     49.3460E-03     1.88820E-03     49.3099E-03     116.107E-03    -57.9558E-03    -58.1511E-03    -58.0864E-03     116.104E-03    -58.0172E-03     1.43763E-03     118.132E-03     213.414E+06    -57.7908E+06    -65.6427E+06    -275.012E+06    -65.6499E+06    -275.005E+06    -57.7908E+06     894.467E+03
             460     49.3196E-03     943.576E-06     49.3106E-03     115.890E-03    -57.7386E-03    -58.1518E-03    -58.1318E-03     115.887E-03    -57.7554E-03     1.36592E-03     116.920E-03     211.586E+06    -63.6904E+06    -68.9031E+06    -277.834E+06    -67.8399E+06    -277.813E+06    -64.7744E+06     1.59519E+06
             461     51.3687E-03     16.0520E-03     48.7963E-03     138.493E-03    -58.0531E-03    -80.4397E-03    -57.1749E-03     115.228E-03    -58.0531E-03     127.225E-03     428.775E-03     133.586E+06     129.391E+06     122.786E+06    -7.36536E+06    -7.32741E+06     129.354E+06     122.786E+06    -1.33843E+06
             462     50.8902E-03     15.1110E-03     48.5950E-03     145.096E-03    -57.9621E-03    -87.1341E-03    -56.9953E-03     114.957E-03    -57.9621E-03     154.770E-03     426.028E-03     126.903E+06     121.484E+06     99.5013E+06    -13.9866E+06    -13.9497E+06     121.447E+06     99.5013E+06    -1.39944E+06
             463     50.4830E-03     14.1652E-03     48.4549E-03     127.589E-03    -57.8082E-03    -69.7812E-03    -55.9571E-03     113.765E-03    -57.8082E-03     97.6878E-03     316.741E-03     119.000E+06     115.542E+06     60.0316E+06    -19.6703E+06    -19.6399E+06     115.511E+06     60.0316E+06     192.315E+03
             464     50.1561E-03     13.2172E-03     48.3833E-03     118.755E-03    -57.6753E-03    -61.0800E-03    -56.0360E-03     113.711E-03    -57.6753E-03     58.4971E-03     257.302E-03     115.985E+06     106.725E+06     24.2482E+06    -25.0997E+06    -25.0310E+06     106.656E+06     24.2482E+06     2.66654E+06
             465     49.8611E-03     12.2758E-03     48.3263E-03     116.522E-03    -57.5716E-03    -58.9503E-03    -56.5279E-03     114.169E-03    -57.6415E-03     39.4656E-03     219.671E-03     76.9228E+06     58.4182E+06     753.136E+03    -28.4034E+06    -28.3248E+06     58.3396E+06     753.136E+03     1.89195E+06
             466     49.6067E-03     11.3290E-03     48.2958E-03     115.529E-03    -57.6017E-03    -57.9274E-03    -56.6889E-03     114.411E-03    -57.7219E-03     27.5598E-03     194.106E-03     35.7298E+06     3.69769E+06    -17.4375E+06    -37.5493E+06    -28.4234E+06    -15.3241E+06    -7.54156E+06    -1.61509E+06
             467     49.3719E-03     10.3850E-03     48.2674E-03     115.708E-03    -57.7689E-03    -57.9391E-03    -57.1481E-03     114.967E-03    -57.8192E-03     22.5564E-03     176.964E-03     54.3757E+06    -6.69614E+06    -28.5003E+06    -68.1690E+06    -28.9903E+06    -67.6790E+06    -6.69614E+06    -3.51219E+06
             468     49.1626E-03     9.44186E-03     48.2474E-03     115.576E-03    -57.5767E-03    -57.9994E-03    -57.1952E-03     115.091E-03    -57.8955E-03     18.1196E-03     163.098E-03     93.4128E+06    -7.67931E+06    -30.8775E+06    -110.347E+06    -31.0565E+06    -110.168E+06    -7.67931E+06    -1.77716E+06
             469     48.9717E-03     8.49561E-03     48.2291E-03     115.514E-03    -57.5248E-03    -57.9891E-03    -57.2638E-03     115.253E-03    -57.9891E-03     13.2395E-03     151.835E-03     130.187E+06    -7.16266E+06    -33.8128E+06    -148.541E+06    -33.9399E+06    -148.414E+06    -7.16266E+06     1.18656E+06
             470     48.8065E-03     7.55200E-03     48.2186E-03     115.964E-03    -57.8772E-03    -58.0873E-03    -57.7401E-03     115.811E-03    -58.0706E-03     10.3061E-03     143.756E-03     161.955E+06    -3.90868E+06    -36.1493E+06    -179.506E+06    -36.2546E+06    -179.401E+06    -3.90868E+06     2.48365E+06
             471     48.6585E-03     6.60859E-03     48.2077E-03     115.956E-03    -57.8477E-03    -58.1079E-03    -57.7625E-03     115.854E-03    -58.0912E-03     8.32273E-03     136.536E-03     183.519E+06    -8.09538E+06    -40.8208E+06    -205.747E+06    -40.8662E+06    -205.702E+06    -8.09538E+06     1.58167E+06
             472     48.5324E-03     5.66335E-03     48.2008E-03     115.809E-03    -57.7202E-03    -58.0891E-03    -57.6639E-03     115.753E-03    -58.0891E-03     6.17851E-03     130.489E-03     194.378E+06    -18.1961E+06    -47.1113E+06    -225.391E+06    -47.1449E+06    -225.358E+06    -18.1961E+06     2.95906E+03
             473     48.4260E-03     4.72040E-03     48.1954E-03     115.887E-03    -57.7846E-03    -58.1021E-03    -57.7533E-03     115.855E-03    -58.1021E-03     4.60334E-03     125.985E-03     205.971E+06    -27.2582E+06    -51.5136E+06    -244.264E+06    -51.5315E+06    -244.246E+06    -27.2582E+06    -702.772E+03
             474     48.3401E-03     3.77563E-03     48.1924E-03     115.816E-03    -57.6837E-03    -58.1324E-03    -57.6683E-03     115.801E-03    -58.1324E-03     3.16184E-03     122.289E-03     214.206E+06    -37.1242E+06    -56.3881E+06    -260.291E+06    -56.3943E+06    -260.285E+06    -37.1242E+06    -364.293E+03
             475     48.2721E-03     2.83110E-03     48.1890E-03     115.904E-03    -57.7169E-03    -58.1874E-03    -57.7106E-03     115.898E-03    -58.1874E-03     1.99261E-03     119.731E-03     213.215E+06    -49.7341E+06    -62.0947E+06    -268.833E+06    -62.0955E+06    -268.832E+06    -49.7341E+06     64.5866E+03
             476     48.2255E-03     1.88671E-03     48.1886E-03     116.332E-03    -58.0298E-03    -58.3024E-03    -58.0932E-03     116.330E-03    -58.2365E-03     1.17000E-03     118.421E-03     211.858E+06    -58.8816E+06    -65.8367E+06    -274.126E+06    -65.8520E+06    -274.111E+06    -58.8816E+06    -466.913E+03
             477     48.1962E-03     944.314E-06     48.1870E-03     116.444E-03    -57.9244E-03    -58.5192E-03    -58.4767E-03     116.442E-03    -57.9649E-03     1.05155E-03     117.529E-03     210.096E+06    -64.5514E+06    -68.9967E+06    -276.831E+06    -68.5844E+06    -276.815E+06    -64.9790E+06    -361.876E+03
             478     50.3092E-03     16.0585E-03     47.6774E-03     137.446E-03    -58.0760E-03    -79.3695E-03    -56.3525E-03     114.428E-03    -58.0760E-03     125.660E-03     428.039E-03     134.908E+06     130.232E+06     122.961E+06    -8.15528E+06    -8.11767E+06     130.195E+06     122.961E+06    -1.86936E+06
             479     49.8175E-03     15.1082E-03     47.4713E-03     144.271E-03    -58.0166E-03    -86.2545E-03    -56.3132E-03     114.330E-03    -58.0166E-03     153.610E-03     426.592E-03     126.462E+06     119.605E+06     96.6294E+06    -15.7048E+06    -15.6632E+06     119.563E+06     96.6294E+06    -2.01149E+06
             480     49.4084E-03     14.1622E-03     47.3352E-03     128.296E-03    -57.8609E-03    -70.4351E-03    -56.7789E-03     114.640E-03    -57.8609E-03     97.2230E-03     318.110E-03     118.843E+06     112.733E+06     57.5457E+06    -22.6488E+06    -22.6193E+06     112.703E+06     57.5457E+06     115.684E+03
             481     49.0723E-03     13.2212E-03     47.2577E-03     119.193E-03    -57.6831E-03    -61.5103E-03    -56.5441E-03     114.227E-03    -57.6831E-03     58.4318E-03     257.244E-03     116.149E+06     105.863E+06     23.0856E+06    -25.6962E+06    -25.6509E+06     105.817E+06     23.0856E+06     1.66074E+06
             482     48.7765E-03     12.2739E-03     47.2070E-03     116.445E-03    -57.5616E-03    -58.8834E-03    -56.3644E-03     113.996E-03    -57.6315E-03     40.2344E-03     219.007E-03     79.1224E+06     62.8452E+06     685.511E+03    -25.8293E+06    -25.7915E+06     62.8074E+06     685.511E+03     965.338E+03
             483     48.5143E-03     11.3301E-03     47.1727E-03     115.593E-03    -57.6268E-03    -57.9667E-03    -56.7141E-03     114.435E-03    -57.7205E-03     28.0365E-03     193.972E-03     36.6832E+06     6.58668E+06    -17.2066E+06    -35.6054E+06    -27.6934E+06    -10.7714E+06     -7.7605E+06    -1.47723E+06
             484     48.2769E-03     10.3850E-03     47.1467E-03     115.568E-03    -57.7075E-03    -57.8607E-03    -56.9804E-03     114.808E-03    -57.8277E-03     22.8394E-03     176.640E-03     53.9845E+06    -9.39522E+06    -30.9673E+06    -70.3287E+06    -31.3813E+06    -69.9146E+06    -9.39522E+06    -2.03930E+06
             485     48.0602E-03     9.43960E-03     47.1241E-03     115.728E-03    -57.7205E-03    -58.0074E-03    -57.3297E-03     115.238E-03    -57.9082E-03     18.1557E-03     163.229E-03     92.2243E+06    -10.9311E+06    -36.4427E+06    -113.182E+06    -36.6260E+06    -112.999E+06    -10.9311E+06    -194.928E+03
             486     47.8693E-03     8.49694E-03     47.1092E-03     115.715E-03    -57.6652E-03    -58.0499E-03    -57.4837E-03     115.451E-03    -57.9677E-03     13.3722E-03     151.869E-03     124.790E+06    -12.0515E+06    -39.3110E+06    -148.163E+06    -39.3522E+06    -148.121E+06    -12.0515E+06    -496.284E+03
             487     47.6969E-03     7.55184E-03     47.0952E-03     115.750E-03    -57.6879E-03    -58.0620E-03    -57.5444E-03     115.590E-03    -58.0453E-03     10.4589E-03     143.455E-03     157.933E+06    -9.03365E+06    -40.3648E+06    -180.262E+06    -40.4004E+06    -180.226E+06    -9.03365E+06      -341.6E+03
             488     47.5479E-03     6.60771E-03     47.0865E-03     115.833E-03    -57.7111E-03    -58.1215E-03    -57.6309E-03     115.736E-03    -58.1049E-03     8.09917E-03     136.459E-03     182.059E+06    -8.50477E+06    -41.9727E+06    -204.949E+06    -42.0109E+06    -204.911E+06    -8.50477E+06     1.19735E+06
             489     47.4186E-03     5.66422E-03     47.0791E-03     115.762E-03    -57.6358E-03    -58.1263E-03    -57.5804E-03     115.707E-03    -58.1263E-03     6.15598E-03     130.400E-03     193.977E+06    -16.7137E+06    -45.1820E+06    -223.316E+06    -45.2110E+06    -223.287E+06    -16.7137E+06     320.109E+03
             490     47.3098E-03     4.71872E-03     47.0739E-03     115.950E-03    -57.7987E-03    -58.1513E-03    -57.7673E-03     115.919E-03    -58.1513E-03     4.56034E-03     125.995E-03     206.167E+06    -27.2268E+06    -51.0815E+06    -244.270E+06    -51.0941E+06    -244.257E+06    -27.2268E+06    -138.123E+03
             491     47.2211E-03     3.77573E-03     47.0699E-03     116.086E-03    -57.9011E-03    -58.1845E-03    -57.9077E-03     116.072E-03    -58.1647E-03     2.89660E-03     122.552E-03     214.415E+06    -36.1841E+06    -57.1696E+06    -260.309E+06    -57.1740E+06    -260.305E+06    -36.1841E+06     604.435E+03
             492     47.1538E-03     2.83162E-03     47.0687E-03     116.028E-03    -57.8456E-03    -58.1822E-03    -57.8601E-03     116.023E-03    -58.1624E-03     1.86236E-03     119.841E-03     212.745E+06    -48.0401E+06    -62.6207E+06    -267.658E+06    -62.6252E+06    -267.654E+06    -48.0401E+06     649.645E+03
             493     47.1030E-03     1.88787E-03     47.0651E-03     116.135E-03    -57.9414E-03    -58.1935E-03    -57.9393E-03     116.133E-03    -58.1935E-03     937.806E-06     118.237E-03     210.449E+06    -60.6078E+06    -67.0162E+06    -274.158E+06    -67.0296E+06    -274.145E+06    -60.6078E+06    -536.105E+03
             494     47.0755E-03     942.805E-06     47.0661E-03     116.418E-03    -58.0619E-03    -58.3557E-03    -58.2354E-03     116.416E-03    -58.1808E-03     630.619E-06     117.617E-03     209.027E+06    -67.5484E+06    -69.4798E+06    -277.528E+06    -68.9940E+06    -277.499E+06    -68.0635E+06    -1.44199E+06
             495     49.2430E-03     16.0528E-03     46.5530E-03     137.105E-03    -58.1035E-03    -79.0018E-03    -55.9315E-03     114.035E-03    -58.1035E-03     125.833E-03     428.450E-03     135.509E+06     131.511E+06     123.300E+06    -7.91355E+06    -7.90219E+06     131.500E+06     123.300E+06    -857.358E+03
             496     48.7549E-03     15.1091E-03     46.3546E-03     144.905E-03    -58.0385E-03    -86.8665E-03    -56.8914E-03     114.930E-03    -58.0385E-03     154.142E-03     426.754E-03     126.896E+06     119.252E+06     95.6211E+06    -16.8737E+06    -16.8634E+06     119.242E+06     95.6211E+06    -736.939E+03
             497     48.3306E-03     14.1645E-03     46.2084E-03     128.238E-03    -57.8610E-03    -70.3774E-03    -56.7269E-03     114.588E-03    -57.8610E-03     97.2436E-03     317.933E-03     118.368E+06     111.294E+06     54.8217E+06    -23.3664E+06    -23.3617E+06     111.289E+06     54.8217E+06    -731.096E+03
             498     47.9938E-03     13.2177E-03     46.1378E-03     118.779E-03    -57.7059E-03    -61.0729E-03    -56.1131E-03     113.819E-03    -57.7059E-03     58.2689E-03     257.073E-03     116.053E+06     105.180E+06     21.2515E+06    -26.4194E+06    -26.3980E+06     105.159E+06     21.2515E+06    -1.00311E+06
             499     47.6910E-03     12.2737E-03     46.0846E-03     116.781E-03    -57.6622E-03    -59.1186E-03    -56.6473E-03     114.310E-03    -57.6622E-03     40.4696E-03     219.159E-03     81.7874E+06     64.4474E+06    -458.933E+03    -27.2852E+06    -27.2424E+06     64.4046E+06    -458.933E+03    -743.978E+03
             500     47.4232E-03     11.3289E-03     46.0502E-03     115.882E-03    -57.7112E-03    -58.1705E-03    -57.0291E-03     114.768E-03    -57.7386E-03     27.4091E-03     194.246E-03     41.6284E+06     10.5301E+06    -19.4750E+06    -36.9288E+06    -29.5129E+06    -9.29606E+06    -7.06467E+06     288.098E+03
             501     47.1829E-03     10.3847E-03     46.0259E-03     115.548E-03    -57.7109E-03    -57.8373E-03    -56.9998E-03     114.834E-03    -57.8346E-03     22.1576E-03     176.657E-03     55.7446E+06    -8.87815E+06    -33.1898E+06    -71.7025E+06    -33.8122E+06    -71.0800E+06    -8.87815E+06     1.52623E+06
             502     46.9606E-03     9.44071E-03     46.0019E-03     115.580E-03    -57.5853E-03    -57.9951E-03    -57.1914E-03     115.102E-03    -57.9103E-03     17.8711E-03     163.072E-03     90.8453E+06    -11.3079E+06    -37.4754E+06    -112.337E+06    -37.5188E+06    -112.294E+06    -11.3079E+06     528.022E+03
             503     46.7645E-03     8.49599E-03     45.9863E-03     115.698E-03    -57.6335E-03    -58.0648E-03    -57.4524E-03     115.435E-03    -57.9827E-03     13.4567E-03     151.913E-03     122.921E+06    -11.4508E+06    -40.8121E+06    -146.355E+06    -40.8316E+06    -146.335E+06    -11.4508E+06    -1.38085E+06
             504     46.5909E-03     7.55249E-03     45.9747E-03     115.719E-03    -57.6701E-03    -58.0494E-03    -57.4943E-03     115.544E-03    -58.0494E-03     10.9341E-03     143.292E-03     155.329E+06    -12.5635E+06    -42.9114E+06    -180.801E+06    -42.9945E+06    -180.718E+06    -12.5635E+06    -2.75154E+06
             505     46.4364E-03     6.60789E-03     45.9639E-03     115.794E-03    -57.6818E-03    -58.1124E-03    -57.5821E-03     115.695E-03    -58.1124E-03     8.20609E-03     136.330E-03     179.715E+06    -13.4338E+06    -44.5194E+06    -206.654E+06    -44.5928E+06    -206.581E+06    -13.4338E+06    -2.44332E+06
             506     46.3056E-03     5.66310E-03     45.9580E-03     116.011E-03    -57.8367E-03    -58.1743E-03    -57.8257E-03     115.958E-03    -58.1325E-03     5.97155E-03     130.663E-03     191.610E+06    -18.5279E+06    -48.0558E+06    -223.154E+06    -48.0684E+06    -223.141E+06    -18.5279E+06     245.339E+03
             507     46.1934E-03     4.72013E-03     45.9517E-03     115.972E-03    -57.7965E-03    -58.1752E-03    -57.8139E-03     115.947E-03    -58.1334E-03     3.98417E-03     125.997E-03     204.323E+06    -27.9912E+06    -53.3233E+06    -243.759E+06    -53.3353E+06    -243.747E+06    -27.9912E+06     1.28347E+06
             508     46.1034E-03     3.77509E-03     45.9485E-03     116.018E-03    -57.8627E-03    -58.1548E-03    -57.8722E-03     116.007E-03    -58.1350E-03     2.66214E-03     122.428E-03     212.403E+06    -37.7939E+06    -58.9668E+06    -259.980E+06    -58.9756E+06    -259.971E+06    -37.7939E+06     652.260E+03
             509     46.0328E-03     2.83187E-03     45.9457E-03     116.151E-03    -57.9778E-03    -58.1728E-03    -58.0496E-03     116.145E-03    -58.0952E-03     1.90451E-03     119.885E-03     210.911E+06    -47.9507E+06    -63.4564E+06    -266.162E+06    -63.4617E+06    -266.156E+06    -47.9507E+06     133.923E+03
             510     45.9837E-03     1.88756E-03     45.9449E-03     116.026E-03    -57.9288E-03    -58.0971E-03    -57.9875E-03     116.023E-03    -58.0357E-03     1.14949E-03     118.048E-03     210.842E+06    -59.3984E+06    -67.3223E+06    -274.053E+06    -67.3229E+06    -274.052E+06    -59.3984E+06    -100.568E+03
             511     45.9522E-03     944.648E-06     45.9424E-03     115.976E-03    -57.8515E-03    -58.1246E-03    -58.0452E-03     115.975E-03    -57.9299E-03     529.064E-06     117.021E-03     209.557E+06    -68.5331E+06    -71.2084E+06    -279.402E+06    -70.5148E+06    -279.374E+06    -69.2543E+06    -152.169E+03
             512     48.1881E-03     16.0545E-03     45.4351E-03     137.203E-03    -58.1438E-03    -79.0588E-03    -55.9826E-03     114.126E-03    -58.1438E-03     126.399E-03     428.578E-03     136.047E+06     132.342E+06     123.298E+06    -8.00156E+06    -7.99918E+06     132.340E+06     123.298E+06     318.895E+03
             513     47.6842E-03     15.1082E-03     45.2275E-03     145.471E-03    -58.0600E-03    -87.4106E-03    -57.5863E-03     115.646E-03    -58.0600E-03     154.289E-03     426.501E-03     127.605E+06     120.144E+06     95.8864E+06    -16.9909E+06    -16.9876E+06     120.141E+06     95.8864E+06    -181.538E+03
             514     47.2618E-03     14.1638E-03     45.0895E-03     128.038E-03    -57.8689E-03    -70.1693E-03    -56.5990E-03     114.468E-03    -57.8689E-03     96.9032E-03     317.310E-03     118.650E+06     112.511E+06     55.9515E+06    -22.4329E+06    -22.4229E+06     112.501E+06     55.9515E+06    -1.09767E+06
             515     46.9158E-03     13.2183E-03     45.0152E-03     118.596E-03    -57.7253E-03    -60.8703E-03    -55.9977E-03     113.723E-03    -57.7253E-03     57.6202E-03     257.275E-03     116.268E+06     106.322E+06     22.8280E+06    -25.7901E+06    -25.7434E+06     106.276E+06     22.8280E+06    -2.28515E+06
             516     46.6068E-03     12.2737E-03     44.9616E-03     116.731E-03    -57.6842E-03    -59.0463E-03    -56.6055E-03     114.290E-03    -57.6842E-03     40.3842E-03     219.401E-03     79.9630E+06     61.1161E+06    -1.48239E+06    -28.8498E+06    -28.7909E+06     61.0572E+06    -1.48239E+06    -2.04695E+06
             517     46.3348E-03     11.3300E-03     44.9282E-03     116.122E-03    -57.7627E-03    -58.3594E-03    -57.2154E-03     114.982E-03    -57.7662E-03     27.6491E-03     194.610E-03     42.5129E+06     9.43320E+06    -21.6797E+06    -38.9759E+06    -31.1710E+06    -13.6803E+06    -6.37105E+06     1.61945E+06
             518     46.0889E-03     10.3856E-03     44.9035E-03     115.746E-03    -57.6753E-03    -58.0708E-03    -57.1949E-03     115.042E-03    -57.8475E-03     22.0482E-03     177.061E-03     56.3213E+06    -4.83353E+06    -32.1203E+06    -68.4776E+06    -32.7204E+06    -67.8774E+06    -4.83353E+06     2.51227E+06
             519     45.8628E-03     9.44080E-03     44.8806E-03     115.347E-03    -57.4299E-03    -57.9169E-03    -56.9244E-03     114.839E-03    -57.9142E-03     18.4790E-03     162.693E-03     90.0427E+06    -9.12909E+06    -34.0688E+06    -108.884E+06    -34.0791E+06    -108.874E+06    -9.12909E+06      50.816E+03
             520     45.6624E-03     8.49577E-03     44.8651E-03     115.621E-03    -57.6103E-03    -58.0108E-03    -57.3310E-03     115.342E-03    -58.0108E-03     13.7510E-03     151.868E-03     124.683E+06    -9.41655E+06    -35.9984E+06    -145.175E+06    -36.0242E+06    -145.149E+06    -9.41655E+06    -1.49966E+06
             521     45.4829E-03     7.55124E-03     44.8517E-03     115.959E-03    -57.8740E-03    -58.0848E-03    -57.7265E-03     115.798E-03    -58.0712E-03     10.4335E-03     143.579E-03     155.814E+06    -11.6056E+06    -39.7045E+06    -179.539E+06    -39.7963E+06    -179.447E+06    -11.6056E+06    -2.98626E+06
             522     45.3277E-03     6.60728E-03     44.8435E-03     115.992E-03    -57.8768E-03    -58.1148E-03    -57.7998E-03     115.901E-03    -58.1013E-03     7.80116E-03     136.526E-03     180.180E+06    -15.9143E+06    -46.2445E+06    -209.332E+06    -46.3197E+06    -209.257E+06    -15.9143E+06    -2.58826E+06
             523     45.1908E-03     5.66402E-03     44.8345E-03     115.971E-03    -57.8251E-03    -58.1463E-03    -57.8177E-03     115.922E-03    -58.1045E-03     5.77357E-03     130.642E-03     190.512E+06    -21.1796E+06    -52.1074E+06    -225.258E+06    -52.1208E+06    -225.244E+06    -21.1796E+06    -531.607E+03
             524     45.0783E-03     4.71981E-03     44.8305E-03     115.987E-03    -57.8007E-03    -58.1866E-03    -57.8643E-03     115.962E-03    -58.0975E-03     4.11868E-03     126.023E-03     202.567E+06    -28.5026E+06    -55.5363E+06    -243.184E+06    -55.5475E+06    -243.173E+06    -28.5026E+06     647.392E+03
             525     44.9856E-03     3.77626E-03     44.8269E-03     115.996E-03    -57.8791E-03    -58.1171E-03    -57.9140E-03     115.984E-03    -58.0698E-03     2.88876E-03     122.374E-03     210.239E+06    -38.7392E+06    -59.1848E+06    -258.432E+06    -59.1904E+06    -258.426E+06    -38.7392E+06     417.253E+03
             526     44.9132E-03     2.83146E-03     44.8238E-03     115.995E-03    -57.9237E-03    -58.0710E-03    -57.9766E-03     115.990E-03    -58.0133E-03     1.65461E-03     119.689E-03     209.354E+06    -50.2654E+06    -63.9156E+06    -266.087E+06    -63.9236E+06    -266.079E+06    -50.2654E+06    -709.956E+03
             527     44.8624E-03     1.88850E-03     44.8226E-03     115.921E-03    -57.9125E-03    -58.0089E-03    -57.9721E-03     115.920E-03    -57.9475E-03     1.06734E-03     117.876E-03     210.970E+06    -59.7098E+06    -68.0303E+06    -274.708E+06    -68.0410E+06    -274.697E+06    -59.7098E+06    -290.046E+03
             528     44.8317E-03     943.472E-06     44.8218E-03     115.756E-03    -57.7193E-03    -58.0365E-03    -58.0285E-03     115.754E-03    -57.7259E-03     899.814E-06     116.657E-03     208.913E+06    -68.3372E+06    -73.2299E+06    -279.649E+06    -72.6133E+06    -279.632E+06    -68.9708E+06     935.779E+03
             529     47.1281E-03     16.0519E-03     44.3103E-03     137.598E-03    -58.1491E-03    -79.4490E-03    -56.2657E-03     114.415E-03    -58.1491E-03     127.556E-03     428.639E-03     136.481E+06     131.812E+06     123.899E+06    -8.44555E+06    -8.43810E+06     131.804E+06     123.899E+06     798.477E+03
             530     46.6219E-03     15.1090E-03     44.1058E-03     144.792E-03    -58.0707E-03    -86.7212E-03    -57.1498E-03     115.221E-03    -58.0707E-03     153.280E-03     426.424E-03     127.746E+06     122.040E+06     98.0933E+06    -14.9532E+06    -14.9418E+06     122.029E+06     98.0933E+06    -640.258E+03
             531     46.1918E-03     14.1630E-03     43.9669E-03     128.103E-03    -57.8963E-03    -70.2065E-03    -56.6008E-03     114.497E-03    -57.8963E-03     97.0338E-03     317.650E-03     119.159E+06     115.005E+06     59.0413E+06    -20.7375E+06    -20.7078E+06     114.975E+06     59.0413E+06    -1.89298E+06
             532     45.8401E-03     13.2194E-03     43.8926E-03     118.936E-03    -57.7450E-03    -61.1911E-03    -56.2537E-03     113.999E-03    -57.7450E-03     58.1054E-03     257.602E-03     116.445E+06     106.889E+06     25.0366E+06    -25.6236E+06    -25.5816E+06     106.847E+06     25.0366E+06    -1.88677E+06
             533     45.5271E-03     12.2733E-03     43.8416E-03     116.498E-03    -57.7010E-03    -58.7968E-03    -56.3186E-03     114.020E-03    -57.7010E-03     40.6954E-03     219.074E-03     77.8002E+06     58.1568E+06    -1.73695E+06    -29.6173E+06    -29.5743E+06     58.1138E+06    -1.73695E+06    -271.335E+03
             534     45.2451E-03     11.3277E-03     43.8042E-03     115.819E-03    -57.5717E-03    -58.2475E-03    -56.8317E-03     114.629E-03    -57.7976E-03     28.2353E-03     194.011E-03     38.1748E+06     3.99900E+06    -21.7423E+06    -39.7768E+06    -31.1704E+06    -16.8689E+06    -9.48089E+06     163.390E+03
             535     44.9963E-03     10.3850E-03     43.7815E-03     115.947E-03    -57.5032E-03    -58.4440E-03    -57.3151E-03     115.213E-03    -57.8978E-03     22.5424E-03     177.551E-03     54.0163E+06    -5.17576E+06    -29.4892E+06    -66.3652E+06    -29.9525E+06    -65.9018E+06    -5.17576E+06    -485.053E+03
             536     44.7668E-03     9.43965E-03     43.7603E-03     116.031E-03    -57.6888E-03    -58.3420E-03    -57.5814E-03     115.526E-03    -57.9444E-03     18.4057E-03     163.461E-03     90.6017E+06    -6.30506E+06    -29.7352E+06    -106.160E+06    -29.7485E+06    -106.147E+06    -6.30506E+06    -635.612E+03
             537     44.5594E-03     8.49580E-03     43.7420E-03     115.808E-03    -57.7387E-03    -58.0693E-03    -57.5555E-03     115.553E-03    -57.9973E-03     13.1220E-03     152.029E-03     125.640E+06    -7.11471E+06    -32.5837E+06    -143.520E+06    -32.6083E+06    -143.496E+06    -7.11471E+06    -1.12606E+06
             538     44.3780E-03     7.55214E-03     43.7306E-03     115.892E-03    -57.8207E-03    -58.0717E-03    -57.6894E-03     115.748E-03    -58.0582E-03     9.92970E-03     143.634E-03     159.139E+06    -8.04349E+06    -38.2578E+06    -180.100E+06    -38.2833E+06    -180.074E+06    -8.04349E+06    -516.484E+03
             539     44.2165E-03     6.60864E-03     43.7199E-03     115.973E-03    -57.8755E-03    -58.0979E-03    -57.8019E-03     115.886E-03    -58.0844E-03     7.68549E-03     136.611E-03     183.818E+06    -12.6623E+06    -44.0264E+06    -210.123E+06    -44.0360E+06    -210.114E+06    -12.6623E+06    -61.9666E+03
             540     44.0797E-03     5.66402E-03     43.7143E-03     115.784E-03    -57.6987E-03    -58.0851E-03    -57.6480E-03     115.733E-03    -58.0851E-03     5.87121E-03     130.451E-03     192.312E+06    -20.4258E+06    -49.6158E+06    -225.648E+06    -49.6230E+06    -225.641E+06    -20.4258E+06    -765.767E+03
             541     43.9620E-03     4.71940E-03     43.7080E-03     115.941E-03    -57.8004E-03    -58.1405E-03    -57.8200E-03     115.913E-03    -58.0933E-03     4.31481E-03     125.983E-03     203.186E+06    -29.1098E+06    -55.2843E+06    -244.095E+06    -55.2890E+06    -244.090E+06    -29.1098E+06    -770.548E+03
             542     43.8678E-03     3.77574E-03     43.7050E-03     116.118E-03    -57.9942E-03    -58.1234E-03    -58.0586E-03     116.104E-03    -58.0454E-03     3.02390E-03     122.486E-03     208.406E+06    -39.9934E+06    -60.2917E+06    -257.778E+06    -60.2961E+06    -257.774E+06    -39.9934E+06    -363.586E+03
             543     43.7940E-03     2.83272E-03     43.7023E-03     115.939E-03    -57.9278E-03    -58.0111E-03    -57.9751E-03     115.933E-03    -57.9580E-03     1.90492E-03     119.621E-03     207.878E+06    -51.8035E+06    -64.4166E+06    -265.675E+06    -64.4317E+06    -265.660E+06    -51.8035E+06    -205.122E+03
             544     43.7420E-03     1.88755E-03     43.7013E-03     115.815E-03    -57.8410E-03    -57.9743E-03    -57.9376E-03     115.814E-03    -57.8760E-03     863.190E-06     117.770E-03     210.185E+06    -62.0421E+06    -69.0484E+06    -275.635E+06    -69.0700E+06    -275.613E+06    -62.0421E+06    -91.8249E+03
             545     43.7104E-03     944.576E-06     43.7002E-03     115.620E-03    -57.7035E-03    -57.9168E-03    -57.8944E-03     115.619E-03    -57.7250E-03     607.483E-06     116.505E-03     208.314E+06    -67.3556E+06    -71.7992E+06    -277.855E+06    -70.9372E+06    -277.840E+06    -68.2322E+06    -713.236E+03
             546     46.0735E-03     16.0559E-03     43.1854E-03     137.451E-03    -58.1059E-03    -79.3447E-03    -56.2420E-03     114.348E-03    -58.1059E-03     127.113E-03     429.122E-03     135.994E+06     132.481E+06     124.875E+06    -7.14542E+06    -7.11728E+06     132.453E+06     124.875E+06     378.157E+03
             547     45.5645E-03     15.1087E-03     42.9867E-03     143.966E-03    -58.0504E-03    -85.9161E-03    -56.2446E-03     114.295E-03    -58.0504E-03     152.947E-03     426.696E-03     126.617E+06     122.417E+06     98.7505E+06    -13.2114E+06    -13.1895E+06     122.395E+06     98.7505E+06    -1.30721E+06
             548     45.1234E-03     14.1629E-03     42.8431E-03     128.093E-03    -57.8949E-03    -70.1981E-03    -56.3694E-03     114.264E-03    -57.8949E-03     97.6147E-03     317.974E-03     118.249E+06     114.599E+06     55.8201E+06    -19.9969E+06    -19.9722E+06     114.574E+06     55.8201E+06    -1.06169E+06
             549     44.7669E-03     13.2170E-03     42.7713E-03     119.164E-03    -57.7454E-03    -61.4184E-03    -56.5943E-03     114.340E-03    -57.7454E-03     57.3706E-03     258.049E-03     116.300E+06     106.181E+06     22.2382E+06    -26.0349E+06    -26.0193E+06     106.166E+06     22.2382E+06    -307.728E+03
             550     44.4466E-03     12.2736E-03     42.7183E-03     116.496E-03    -57.5362E-03    -58.9596E-03    -56.4787E-03     114.176E-03    -57.6973E-03     39.3537E-03     219.281E-03     78.4922E+06     59.5468E+06    -705.562E+03    -29.1097E+06    -29.0497E+06     59.4868E+06    -705.562E+03    -128.748E+03
             551     44.1621E-03     11.3294E-03     42.6841E-03     115.194E-03    -57.3407E-03    -57.8537E-03    -56.2770E-03     114.072E-03    -57.7952E-03     27.4219E-03     193.498E-03     36.4004E+06     3.58115E+06    -19.9705E+06    -38.2537E+06    -29.3110E+06    -14.6819E+06    -10.6501E+06    -2.06734E+06
             552     43.9042E-03     10.3817E-03     42.6591E-03     115.999E-03    -57.6215E-03    -58.3776E-03    -57.3823E-03     115.297E-03    -57.9149E-03     22.0006E-03     177.753E-03     52.2562E+06    -8.71377E+06    -30.4252E+06    -68.0274E+06    -30.8933E+06    -67.5592E+06    -8.71377E+06    -3.07870E+06
             553     43.6683E-03     9.44090E-03     42.6355E-03     116.500E-03    -57.9462E-03    -58.5533E-03    -58.0978E-03     116.044E-03    -57.9462E-03     17.5295E-03     164.149E-03     89.3425E+06    -7.87657E+06    -33.4060E+06    -107.103E+06    -33.4859E+06    -107.023E+06    -7.87657E+06    -1.20184E+06
             554     43.4604E-03     8.49727E-03     42.6216E-03     115.839E-03    -57.7306E-03    -58.1087E-03    -57.6239E-03     115.588E-03    -57.9643E-03     13.1291E-03     152.005E-03     123.153E+06    -8.58145E+06    -36.3801E+06    -143.216E+06    -36.3904E+06    -143.205E+06    -8.58145E+06     338.778E+03
             555     43.2718E-03     7.55227E-03     42.6076E-03     115.599E-03    -57.5614E-03    -58.0380E-03    -57.3932E-03     115.431E-03    -58.0380E-03     10.6949E-03     143.291E-03     158.729E+06    -8.74488E+06    -39.9722E+06    -180.753E+06    -39.9780E+06    -180.747E+06    -8.74488E+06     572.604E+03
             556     43.1086E-03     6.60757E-03     42.5992E-03     115.797E-03    -57.7022E-03    -58.0951E-03    -57.6044E-03     115.699E-03    -58.0951E-03     8.12938E-03     136.376E-03     183.339E+06    -12.5329E+06    -43.4263E+06    -209.331E+06    -43.4316E+06    -209.326E+06    -12.5329E+06     545.071E+03
             557     42.9666E-03     5.66374E-03     42.5916E-03     115.987E-03    -57.8689E-03    -58.1183E-03    -57.8391E-03     115.934E-03    -58.0950E-03     6.01585E-03     130.657E-03     192.377E+06    -20.2131E+06    -47.4769E+06    -224.758E+06    -47.4825E+06    -224.753E+06    -20.2131E+06     323.999E+03
             558     42.8479E-03     4.72019E-03     42.5871E-03     116.036E-03    -57.9327E-03    -58.1033E-03    -57.9278E-03     116.008E-03    -58.0800E-03     4.34004E-03     126.102E-03     203.628E+06    -28.5998E+06    -53.1674E+06    -243.386E+06    -53.1730E+06    -243.381E+06    -28.5998E+06    -120.853E+03
             559     42.7493E-03     3.77588E-03     42.5822E-03     115.957E-03    -57.8823E-03    -58.0743E-03    -57.9013E-03     115.945E-03    -58.0436E-03     2.73772E-03     122.381E-03     209.309E+06    -39.6932E+06    -59.5140E+06    -258.189E+06    -59.5177E+06    -258.185E+06    -39.6932E+06    -631.092E+03
             560     42.6752E-03     2.83138E-03     42.5812E-03     115.962E-03    -57.8901E-03    -58.0716E-03    -57.9763E-03     115.957E-03    -57.9802E-03     1.85190E-03     119.689E-03     208.448E+06    -51.6772E+06    -64.7797E+06    -266.347E+06    -64.7883E+06    -266.338E+06    -51.6772E+06     27.8848E+03
             561     42.6209E-03     1.88877E-03     42.5790E-03     115.897E-03    -57.8780E-03    -58.0186E-03    -58.0122E-03     115.894E-03    -57.8821E-03     994.009E-06     117.870E-03     209.792E+06    -61.4873E+06    -68.0398E+06    -274.458E+06    -68.0516E+06    -274.447E+06    -61.4873E+06    -220.343E+03
             562     42.5901E-03     944.064E-06     42.5796E-03     115.600E-03    -57.6006E-03    -57.9990E-03    -57.9793E-03     115.599E-03    -57.6196E-03     541.969E-06     116.513E-03     208.245E+06    -68.3290E+06    -71.0444E+06    -277.915E+06    -70.1777E+06    -277.905E+06    -69.2055E+06    -1.02268E+06
             563     45.0285E-03     16.0560E-03     42.0687E-03     137.719E-03    -58.0836E-03    -79.6357E-03    -56.0396E-03     114.123E-03    -58.0836E-03     127.322E-03     428.826E-03     135.695E+06     134.102E+06     125.064E+06    -5.87674E+06    -5.83410E+06     134.059E+06     125.064E+06    -585.701E+03
             564     44.5065E-03     15.1088E-03     41.8635E-03     144.773E-03    -58.0302E-03    -86.7433E-03    -56.4906E-03     114.521E-03    -58.0302E-03     154.447E-03     426.682E-03     125.567E+06     121.813E+06     97.1216E+06    -13.3060E+06    -13.2907E+06     121.798E+06     97.1216E+06    -326.611E+03
             565     44.0619E-03     14.1629E-03     41.7236E-03     128.156E-03    -57.8580E-03    -70.2975E-03    -56.7963E-03     114.654E-03    -57.8580E-03     96.7823E-03     317.754E-03     116.711E+06     112.515E+06     54.3237E+06    -20.2995E+06    -20.2942E+06     112.509E+06     54.3237E+06     606.296E+03
             566     43.6939E-03     13.2190E-03     41.6463E-03     118.736E-03    -57.7024E-03    -61.0339E-03    -56.3139E-03     114.016E-03    -57.7024E-03     56.4975E-03     257.280E-03     116.026E+06     106.972E+06     22.3791E+06    -24.7109E+06    -24.7063E+06     106.967E+06     22.3791E+06     642.897E+03
             567     43.3701E-03     12.2750E-03     41.5968E-03     116.101E-03    -57.5099E-03    -58.5910E-03    -56.2079E-03     113.879E-03    -57.6711E-03     38.5849E-03     219.275E-03     80.4725E+06     62.8493E+06     6.55488E+03    -27.7591E+06    -27.7090E+06     62.7992E+06     6.55488E+03     -966.07E+03
             568     43.0801E-03     11.3279E-03     41.5641E-03     115.569E-03    -57.5308E-03    -58.0387E-03    -56.6411E-03     114.400E-03    -57.7594E-03     28.0978E-03     193.994E-03     37.3774E+06     4.96289E+06    -20.8021E+06    -37.8226E+06    -30.3038E+06    -12.1378E+06    -11.2201E+06    -2.55414E+06
             569     42.8145E-03     10.3862E-03     41.5356E-03     115.838E-03    -57.6555E-03    -58.1828E-03    -57.2365E-03     115.103E-03    -57.8666E-03     22.4589E-03     177.223E-03     52.1375E+06    -10.9904E+06    -32.5151E+06    -69.8981E+06    -32.9008E+06    -69.5124E+06    -10.9904E+06    -2.66117E+06
             570     42.5732E-03     9.43974E-03     41.5135E-03     115.791E-03    -57.6413E-03    -58.1495E-03    -57.3908E-03     115.331E-03    -57.9400E-03     17.5715E-03     163.439E-03     90.2695E+06    -10.1349E+06    -35.4385E+06    -110.288E+06    -35.5239E+06    -110.202E+06    -10.1349E+06    -1.36659E+06
             571     42.3594E-03     8.49585E-03     41.4987E-03     115.848E-03    -57.7193E-03    -58.1284E-03    -57.5925E-03     115.587E-03    -57.9943E-03     13.3908E-03     152.120E-03     122.084E+06    -10.3554E+06    -37.6531E+06    -143.733E+06    -37.6714E+06    -143.714E+06    -10.3554E+06    -40.6096E+03
             572     42.1691E-03     7.55196E-03     41.4874E-03     115.828E-03    -57.7039E-03    -58.1246E-03    -57.5968E-03     115.660E-03    -58.0629E-03     10.7035E-03     143.484E-03     157.421E+06    -9.23082E+06    -39.7832E+06    -179.682E+06    -39.7843E+06    -179.681E+06    -9.23082E+06     106.880E+03
             573     41.9995E-03     6.60768E-03     41.4765E-03     115.843E-03    -57.7293E-03    -58.1139E-03    -57.6371E-03     115.751E-03    -58.1139E-03     7.89257E-03     136.431E-03     182.823E+06    -12.1735E+06    -43.9403E+06    -208.784E+06    -43.9412E+06    -208.783E+06    -12.1735E+06    -62.3767E+03
             574     41.8552E-03     5.66362E-03     41.4703E-03     116.015E-03    -57.8851E-03    -58.1301E-03    -57.8574E-03     115.964E-03    -58.1068E-03     5.90474E-03     130.717E-03     191.274E+06    -21.1357E+06    -48.8074E+06    -224.720E+06    -48.8113E+06    -224.716E+06    -21.1357E+06      497.26E+03
             575     41.7318E-03     4.71973E-03     41.4641E-03     116.040E-03    -57.9258E-03    -58.1142E-03    -57.9194E-03     116.010E-03    -58.0909E-03     4.48752E-03     126.125E-03     202.475E+06    -29.4616E+06    -53.1226E+06    -242.716E+06    -53.1284E+06    -242.710E+06    -29.4616E+06     871.010E+03
             576     41.6334E-03     3.77619E-03     41.4618E-03     116.022E-03    -57.8897E-03    -58.1328E-03    -57.9391E-03     116.008E-03    -58.0686E-03     3.05410E-03     122.456E-03     210.269E+06    -37.5807E+06    -58.4447E+06    -257.494E+06    -58.4506E+06    -257.488E+06    -37.5807E+06     696.745E+03
             577     41.5553E-03     2.83229E-03     41.4587E-03     115.927E-03    -57.8073E-03    -58.1195E-03    -57.9041E-03     115.921E-03    -58.0171E-03     1.73718E-03     119.662E-03     209.184E+06    -50.4672E+06    -64.3391E+06    -266.177E+06    -64.3429E+06    -266.173E+06    -50.4672E+06     172.248E+03
             578     41.5008E-03     1.88737E-03     41.4579E-03     115.808E-03    -57.7531E-03    -58.0544E-03    -57.7897E-03     115.806E-03    -58.0162E-03     987.745E-06     117.845E-03     208.712E+06    -62.3907E+06    -68.4946E+06    -274.073E+06    -68.4953E+06    -274.072E+06    -62.3907E+06    -327.305E+03
             579     41.4686E-03     944.011E-06     41.4579E-03     116.047E-03    -57.7529E-03    -58.2941E-03    -58.1492E-03     116.045E-03    -57.8962E-03     969.540E-06     117.094E-03     207.085E+06    -70.1621E+06    -72.4899E+06    -278.394E+06    -72.3172E+06    -278.393E+06    -70.3362E+06     135.028E+03
             580     43.9850E-03     16.0538E-03     40.9507E-03     137.542E-03    -58.0973E-03    -79.4446E-03    -56.0365E-03     114.134E-03    -58.0973E-03     126.203E-03     427.695E-03     137.243E+06     134.241E+06     123.252E+06    -8.15455E+06    -8.13072E+06     134.218E+06     123.252E+06    -1.05978E+06
             581     43.4505E-03     15.1080E-03     40.7393E-03     145.844E-03    -58.0159E-03    -87.8279E-03    -57.4353E-03     115.451E-03    -58.0159E-03     155.549E-03     426.783E-03     128.299E+06     122.277E+06     94.9338E+06    -16.6469E+06    -16.6424E+06     122.272E+06     94.9338E+06     143.028E+03
             582     43.0016E-03     14.1658E-03     40.6014E-03     128.362E-03    -57.8200E-03    -70.5416E-03    -57.0567E-03     114.877E-03    -57.8200E-03     96.9384E-03     317.504E-03     117.718E+06     112.091E+06     55.0323E+06    -22.1225E+06    -22.1155E+06     112.084E+06     55.0323E+06     71.9330E+03
             583     42.6262E-03     13.2202E-03     40.5243E-03     118.128E-03    -57.6815E-03    -60.4463E-03    -55.5934E-03     113.275E-03    -57.6815E-03     57.2743E-03     256.466E-03     115.818E+06     106.607E+06     23.8142E+06    -25.0414E+06    -25.0348E+06     106.600E+06     23.8142E+06     72.7405E+03
             584     42.2966E-03     12.2724E-03     40.4771E-03     116.187E-03    -57.6740E-03    -58.5126E-03    -56.1762E-03     113.850E-03    -57.6740E-03     39.3300E-03     219.190E-03     82.7250E+06     65.5071E+06     1.73104E+06    -27.7706E+06    -27.7555E+06     65.4920E+06     1.73104E+06    -492.377E+03
             585     41.9972E-03     11.3300E-03     40.4400E-03     115.956E-03    -57.5715E-03    -58.3845E-03    -57.0372E-03     114.785E-03    -57.7478E-03     28.2528E-03     194.130E-03     39.9162E+06     7.40753E+06    -19.6324E+06    -38.3721E+06    -30.7895E+06    -10.2415E+06    -9.56603E+06    -2.06888E+06
             586     41.7271E-03     10.3838E-03     40.4145E-03     115.506E-03    -57.4809E-03    -58.0255E-03    -56.8930E-03     114.740E-03    -57.8465E-03     22.9153E-03     176.689E-03     53.5235E+06    -11.3231E+06    -32.3758E+06    -71.4767E+06    -32.7205E+06    -71.1320E+06    -11.3231E+06    -2.44976E+06
             587     41.4807E-03     9.44045E-03     40.3921E-03     115.508E-03    -57.5585E-03    -57.9492E-03    -57.0860E-03     115.035E-03    -57.9492E-03     17.7455E-03     163.201E-03     91.8942E+06    -10.6493E+06    -34.2575E+06    -112.013E+06    -34.3128E+06    -111.957E+06    -10.6493E+06    -1.62719E+06
             588     41.2607E-03     8.49524E-03     40.3767E-03     115.786E-03    -57.6971E-03    -58.0889E-03    -57.5167E-03     115.544E-03    -58.0272E-03     12.8460E-03     152.234E-03     122.315E+06    -10.3577E+06    -37.0875E+06    -143.816E+06    -37.1022E+06    -143.801E+06    -10.3577E+06    -865.305E+03
             589     41.0646E-03     7.55186E-03     40.3642E-03     116.023E-03    -57.8735E-03    -58.1498E-03    -57.7800E-03     115.868E-03    -58.0881E-03     10.3412E-03     143.783E-03     156.380E+06    -10.5238E+06    -41.0834E+06    -179.920E+06    -41.0857E+06    -179.918E+06    -10.5238E+06    -126.749E+03
             590     40.8932E-03     6.60806E-03     40.3557E-03     115.985E-03    -57.8627E-03    -58.1221E-03    -57.7635E-03     115.886E-03    -58.1221E-03     8.20359E-03     136.571E-03     181.817E+06    -13.1761E+06    -45.4186E+06    -208.948E+06    -45.4241E+06    -208.943E+06    -13.1761E+06     466.466E+03
             591     40.7431E-03     5.66384E-03     40.3475E-03     115.851E-03    -57.7268E-03    -58.1237E-03    -57.6719E-03     115.796E-03    -58.1237E-03     6.10464E-03     130.537E-03     190.306E+06    -21.8454E+06    -50.0113E+06    -224.634E+06    -50.0173E+06    -224.628E+06    -21.8454E+06     387.755E+03
             592     40.6185E-03     4.71959E-03     40.3433E-03     115.937E-03    -57.7963E-03    -58.1411E-03    -57.7659E-03     115.907E-03    -58.1411E-03     4.52580E-03     125.988E-03     200.901E+06    -31.0320E+06    -54.8019E+06    -242.750E+06    -54.8051E+06    -242.747E+06    -31.0320E+06     427.550E+03
             593     40.5152E-03     3.77506E-03     40.3389E-03     116.080E-03    -57.8631E-03    -58.2170E-03    -57.9112E-03     116.064E-03    -58.1529E-03     3.27182E-03     122.526E-03     208.766E+06    -38.9685E+06    -59.3814E+06    -257.164E+06    -59.3880E+06    -257.158E+06    -38.9685E+06     990.392E+03
             594     40.4365E-03     2.83182E-03     40.3372E-03     116.041E-03    -57.8336E-03    -58.2078E-03    -57.8901E-03     116.034E-03    -58.1437E-03     2.10728E-03     119.870E-03     208.400E+06    -50.5602E+06    -64.0139E+06    -265.304E+06    -64.0218E+06    -265.296E+06    -50.5602E+06     920.189E+03
             595     40.3812E-03     1.88803E-03     40.3370E-03     116.113E-03    -57.8865E-03    -58.2267E-03    -57.9429E-03     116.110E-03    -58.1676E-03     1.19841E-03     118.184E-03     207.780E+06    -62.2781E+06    -68.7961E+06    -273.223E+06    -68.8096E+06    -273.209E+06    -62.2781E+06     1.01204E+06
             596     40.3463E-03     942.961E-06     40.3353E-03     116.345E-03    -58.0245E-03    -58.3208E-03    -58.1765E-03     116.344E-03    -58.1673E-03     726.787E-06     117.378E-03     206.235E+06    -70.0807E+06    -72.3539E+06    -277.434E+06    -72.1904E+06    -277.424E+06    -70.2548E+06     855.337E+03
             597     42.9401E-03     16.0549E-03     39.8257E-03     137.990E-03    -58.0921E-03    -79.8974E-03    -56.4862E-03     114.578E-03    -58.0921E-03     126.103E-03     427.990E-03     137.516E+06     133.774E+06     122.521E+06    -9.01632E+06    -9.00695E+06     133.765E+06     122.521E+06     48.2707E+03
             598     42.4043E-03     15.1100E-03     39.6209E-03     146.332E-03    -57.9833E-03    -88.3484E-03    -57.8094E-03     115.793E-03    -57.9833E-03     156.256E-03     426.399E-03     128.712E+06     122.779E+06     94.1375E+06    -16.7561E+06    -16.7452E+06     122.768E+06     94.1375E+06    -240.228E+03
             599     41.9376E-03     14.1636E-03     39.4735E-03     127.409E-03    -57.7901E-03    -69.6186E-03    -56.3800E-03     114.170E-03    -57.7901E-03     95.3768E-03     316.493E-03     118.955E+06     113.931E+06     53.3054E+06    -21.9175E+06    -21.9018E+06     113.915E+06     53.3054E+06    -1.25491E+06
             600     41.5668E-03     13.2183E-03     39.4090E-03     117.997E-03    -57.6688E-03    -60.3282E-03    -55.5359E-03     113.205E-03    -57.6688E-03     57.1416E-03     256.682E-03     116.233E+06     104.927E+06     19.4192E+06    -26.6864E+06    -26.6738E+06     104.915E+06     19.4192E+06    -960.691E+03
             601     41.2205E-03     12.2741E-03     39.3507E-03     116.694E-03    -57.6165E-03    -59.0772E-03    -56.6245E-03     114.279E-03    -57.6545E-03     39.7837E-03     219.506E-03     83.7256E+06     64.9676E+06    -571.004E+03    -29.0402E+06    -29.0309E+06     64.9583E+06    -571.004E+03    -586.296E+03
             602     40.9196E-03     11.3294E-03     39.3199E-03     115.553E-03    -57.4585E-03    -58.0943E-03    -56.7192E-03     114.456E-03    -57.7369E-03     27.3571E-03     193.896E-03     40.9399E+06     10.2060E+06    -18.8691E+06    -36.3457E+06    -30.5017E+06    -6.85949E+06    -7.64765E+06    -1.51470E+06
             603     40.6417E-03     10.3851E-03     39.2925E-03     115.342E-03    -57.4913E-03    -57.8508E-03    -56.7288E-03     114.580E-03    -57.8508E-03     22.8319E-03     176.517E-03     53.7108E+06    -11.2171E+06    -32.6792E+06    -70.9208E+06    -32.9278E+06    -70.6722E+06    -11.2171E+06    -2.12389E+06
             604     40.3891E-03     9.43961E-03     39.2705E-03     115.651E-03    -57.7061E-03    -57.9448E-03    -57.2256E-03     115.170E-03    -57.9448E-03     17.9383E-03     163.314E-03     91.4234E+06    -13.4815E+06    -35.9562E+06    -114.029E+06    -36.0066E+06    -113.979E+06    -13.4815E+06    -1.50876E+06
             605     40.1632E-03     8.49650E-03     39.2542E-03     115.678E-03    -57.6557E-03    -58.0222E-03    -57.4042E-03     115.426E-03    -58.0222E-03     13.0831E-03     152.007E-03     120.675E+06    -12.8903E+06    -39.0125E+06    -144.476E+06    -39.0199E+06    -144.469E+06    -12.8903E+06    -564.940E+03
             606     39.9630E-03     7.55121E-03     39.2431E-03     115.812E-03    -57.7042E-03    -58.1074E-03    -57.5452E-03     115.653E-03    -58.1074E-03     10.4453E-03     143.598E-03     155.743E+06    -12.6258E+06    -42.1562E+06    -181.008E+06    -42.1587E+06    -181.005E+06    -12.6258E+06    -105.953E+03
             607     39.7850E-03     6.60723E-03     39.2325E-03     115.980E-03    -57.8158E-03    -58.1645E-03    -57.7153E-03     115.880E-03    -58.1645E-03     8.25628E-03     136.572E-03     181.032E+06    -15.0752E+06    -46.0061E+06    -209.574E+06    -46.0129E+06    -209.567E+06    -15.0752E+06     228.376E+03
             608     39.6336E-03     5.66337E-03     39.2269E-03     115.948E-03    -57.7612E-03    -58.1873E-03    -57.7037E-03     115.891E-03    -58.1873E-03     6.26630E-03     130.620E-03     189.841E+06    -20.9080E+06    -50.2694E+06    -223.696E+06    -50.2831E+06    -223.682E+06    -20.9080E+06     609.668E+03
             609     39.5036E-03     4.71901E-03     39.2207E-03     115.995E-03    -57.7820E-03    -58.2126E-03    -57.7485E-03     115.961E-03    -58.2126E-03     4.75808E-03     126.017E-03     199.892E+06    -30.5490E+06    -55.3692E+06    -241.640E+06    -55.3763E+06    -241.633E+06    -30.5490E+06     436.158E+03
             610     39.3989E-03     3.77575E-03     39.2176E-03     116.012E-03    -57.7620E-03    -58.2497E-03    -57.7466E-03     115.996E-03    -58.2497E-03     3.14791E-03     122.448E-03     206.700E+06    -42.4700E+06    -60.6534E+06    -257.632E+06    -60.6552E+06    -257.630E+06    -42.4700E+06    -15.8235E+03
             611     39.3175E-03     2.83034E-03     39.2155E-03     116.235E-03    -57.9273E-03    -58.3082E-03    -57.9210E-03     116.229E-03    -58.3082E-03     2.02263E-03     120.065E-03     207.708E+06    -51.9978E+06    -64.7610E+06    -265.784E+06    -64.7683E+06    -265.777E+06    -51.9978E+06     726.783E+03
             612     39.2594E-03     1.88673E-03     39.2140E-03     116.637E-03    -58.2130E-03    -58.4238E-03    -58.3305E-03     116.634E-03    -58.3034E-03     1.28326E-03     118.675E-03     207.585E+06    -60.0183E+06    -68.1703E+06    -271.540E+06    -68.1858E+06    -271.524E+06    -60.0183E+06     1.56342E+06
             613     39.2251E-03     944.788E-06     39.2137E-03     116.477E-03    -58.0632E-03    -58.4134E-03    -58.4080E-03     116.475E-03    -58.0668E-03     781.874E-06     117.511E-03     205.596E+06    -67.5705E+06    -70.5439E+06    -274.616E+06    -70.5613E+06    -274.599E+06    -67.5705E+06     1.38663E+06
             614     41.9084E-03     16.0541E-03     38.7115E-03     138.899E-03    -58.0592E-03    -80.8401E-03    -57.5131E-03     115.572E-03    -58.0592E-03     125.759E-03     427.308E-03     136.588E+06     134.712E+06     125.446E+06    -6.26879E+06    -6.25691E+06     134.700E+06     125.446E+06     1.09258E+06
             615     41.3488E-03     15.1095E-03     38.4893E-03     145.478E-03    -57.9358E-03    -87.5424E-03    -57.2798E-03     115.216E-03    -57.9358E-03     154.954E-03     424.869E-03     127.882E+06     124.569E+06     97.3298E+06    -13.4469E+06    -13.4305E+06     124.553E+06     97.3298E+06     302.375E+03
             616     40.8924E-03     14.1669E-03     38.3599E-03     126.370E-03    -57.7630E-03    -68.6070E-03    -55.5304E-03     113.293E-03    -57.7630E-03     94.7377E-03     316.025E-03     118.625E+06     114.318E+06     51.4509E+06    -20.9730E+06    -20.9597E+06     114.305E+06     51.4509E+06    -1.16721E+06
             617     40.5009E-03     13.2186E-03     38.2830E-03     118.681E-03    -57.6466E-03    -61.0343E-03    -56.0187E-03     113.665E-03    -57.6466E-03     58.3415E-03     257.255E-03     116.129E+06     105.167E+06     16.5304E+06    -25.6234E+06    -25.5987E+06     105.142E+06     16.5304E+06    -1.48029E+06
             618     40.1529E-03     12.2749E-03     38.2306E-03     116.521E-03    -57.5850E-03    -58.9361E-03    -56.5010E-03     114.124E-03    -57.6230E-03     39.8105E-03     219.320E-03     81.9297E+06     63.9733E+06    -3.21322E+06    -27.1824E+06    -27.1595E+06     63.9504E+06    -3.21322E+06    -1.28841E+06
             619     39.8418E-03     11.3295E-03     38.1970E-03     115.357E-03    -57.6178E-03    -57.7395E-03    -56.5010E-03     114.240E-03    -57.7395E-03     27.4553E-03     193.886E-03     41.3609E+06     12.0034E+06    -20.1157E+06    -34.5507E+06    -29.0446E+06    -7.21788E+06    -6.40049E+06     14.0032E+03
             620     39.5595E-03     10.3842E-03     38.1722E-03     115.469E-03    -57.6082E-03    -57.8610E-03    -56.8447E-03     114.706E-03    -57.8610E-03     22.9059E-03     176.764E-03     54.5303E+06    -9.46444E+06    -33.2190E+06    -70.0643E+06    -33.5050E+06    -69.7782E+06    -9.46444E+06     23.4158E+03
             621     39.2984E-03     9.44038E-03     38.1476E-03     115.462E-03    -57.5202E-03    -57.9417E-03    -57.0184E-03     114.960E-03    -57.9417E-03     18.2567E-03     162.888E-03     89.5762E+06    -16.0009E+06    -37.8836E+06    -114.469E+06    -37.8958E+06    -114.456E+06    -16.0009E+06    -895.092E+03
             622     39.0680E-03     8.49493E-03     38.1332E-03     115.609E-03    -57.5683E-03    -58.0409E-03    -57.3117E-03     115.353E-03    -58.0409E-03     13.2416E-03     151.926E-03     119.701E+06    -14.3683E+06    -40.5711E+06    -144.996E+06    -40.5811E+06    -144.986E+06    -14.3683E+06    -731.523E+03
             623     38.8613E-03     7.55159E-03     38.1205E-03     115.814E-03    -57.6705E-03    -58.1438E-03    -57.5072E-03     115.651E-03    -58.1438E-03     10.5665E-03     143.575E-03     155.356E+06    -12.4434E+06    -43.4369E+06    -180.943E+06    -43.4455E+06    -180.935E+06    -12.4434E+06    -651.647E+03
             624     38.6800E-03     6.60708E-03     38.1115E-03     115.911E-03    -57.6994E-03    -58.2121E-03    -57.6041E-03     115.816E-03    -58.2121E-03     8.02420E-03     136.533E-03     180.386E+06    -15.4680E+06    -46.7193E+06    -209.415E+06    -46.7258E+06    -209.408E+06    -15.4680E+06    -764.148E+03
             625     38.5225E-03     5.66269E-03     38.1041E-03     116.005E-03    -57.7544E-03    -58.2504E-03    -57.7008E-03     115.951E-03    -58.2504E-03     6.06706E-03     130.690E-03     189.841E+06    -21.6027E+06    -50.4498E+06    -224.201E+06    -50.4625E+06    -224.189E+06    -21.6027E+06    -233.268E+03
             626     38.3906E-03     4.71915E-03     38.0994E-03     116.081E-03    -57.7860E-03    -58.2953E-03    -57.7533E-03     116.049E-03    -58.2953E-03     4.71058E-03     126.137E-03     200.682E+06    -29.6246E+06    -54.5700E+06    -241.560E+06    -54.5884E+06    -241.542E+06    -29.6246E+06     681.695E+03
             627     38.2818E-03     3.77402E-03     38.0954E-03     116.317E-03    -57.9201E-03    -58.3968E-03    -57.9866E-03     116.302E-03    -58.3154E-03     3.07401E-03     122.819E-03     206.756E+06    -41.8501E+06    -59.4798E+06    -256.819E+06    -59.4899E+06    -256.809E+06    -41.8501E+06     627.139E+03
             628     38.1989E-03     2.83137E-03     38.0938E-03     116.492E-03    -58.1050E-03    -58.3867E-03    -58.1822E-03     116.488E-03    -58.3053E-03     1.60227E-03     120.340E-03     207.082E+06    -52.5894E+06    -64.6238E+06    -265.417E+06    -64.6325E+06    -265.409E+06    -52.5894E+06    -79.6995E+03
             629     38.1377E-03     1.88743E-03     38.0910E-03     116.394E-03    -57.9964E-03    -58.3977E-03    -58.0564E-03     116.393E-03    -58.3364E-03     920.520E-06     118.421E-03     206.621E+06    -60.0686E+06    -68.1763E+06    -270.609E+06    -68.1859E+06    -270.600E+06    -60.0686E+06    -422.377E+03
             630     38.1028E-03     942.728E-06     38.0911E-03     116.704E-03    -58.0691E-03    -58.6351E-03    -58.3709E-03     116.702E-03    -58.3312E-03     1.13762E-03     117.811E-03     205.261E+06    -66.3705E+06    -69.6762E+06    -273.245E+06    -69.5048E+06    -273.230E+06    -66.5571E+06    -156.451E+03
             631     40.8687E-03     16.0575E-03     37.5820E-03     139.508E-03    -58.0499E-03    -81.4584E-03    -58.0940E-03     116.144E-03    -58.0499E-03     127.363E-03     427.871E-03     138.126E+06     135.596E+06     125.569E+06    -7.26090E+06    -7.24762E+06     135.583E+06     125.569E+06    -166.530E+03
             632     40.3139E-03     15.1145E-03     37.3733E-03     144.652E-03    -57.9430E-03    -86.7091E-03    -56.4462E-03     114.389E-03    -57.9430E-03     154.693E-03     424.103E-03     129.125E+06     125.071E+06     99.1080E+06    -14.0724E+06    -14.0612E+06     125.060E+06     99.1080E+06     295.630E+03
             633     39.8401E-03     14.1613E-03     37.2383E-03     127.197E-03    -57.7923E-03    -69.4050E-03    -55.5970E-03     113.389E-03    -57.7923E-03     97.5598E-03     316.371E-03     117.914E+06     113.786E+06     52.1547E+06    -20.1175E+06    -20.1138E+06     113.782E+06     52.1547E+06    -109.718E+03
             634     39.4415E-03     13.2198E-03     37.1600E-03     119.248E-03    -57.6560E-03    -61.5918E-03    -56.4275E-03     114.084E-03    -57.6560E-03     59.1732E-03     257.556E-03     115.794E+06     107.178E+06     16.6942E+06    -22.6776E+06    -22.6183E+06     107.118E+06     16.6942E+06    -2.07320E+06
             635     39.0867E-03     12.2739E-03     37.1096E-03     116.236E-03    -57.6354E-03    -58.6010E-03    -56.2366E-03     113.872E-03    -57.6354E-03     39.7379E-03     219.004E-03     80.2451E+06     63.6120E+06    -3.14172E+06    -25.2428E+06    -25.1804E+06     63.5496E+06    -3.14172E+06    -1.96000E+06
             636     38.7675E-03     11.3288E-03     37.0753E-03     115.694E-03    -57.7471E-03    -57.9468E-03    -56.7681E-03     114.535E-03    -57.7667E-03     27.9032E-03     194.070E-03     42.3903E+06     11.8679E+06    -19.5356E+06    -36.2915E+06    -27.6351E+06    -11.3396E+06    -4.98452E+06     1.19701E+06
             637     38.4779E-03     10.3853E-03     37.0499E-03     115.590E-03    -57.6360E-03    -57.9538E-03    -56.9802E-03     114.868E-03    -57.8882E-03     22.2846E-03     177.088E-03     58.5435E+06    -3.13769E+06    -30.3049E+06    -69.2927E+06    -30.7404E+06    -68.8572E+06    -3.13769E+06     3.03633E+06
             638     38.2114E-03     9.43954E-03     37.0271E-03     115.286E-03    -57.3205E-03    -57.9655E-03    -56.8288E-03     114.794E-03    -57.9655E-03     18.1368E-03     162.659E-03     91.3754E+06    -10.2624E+06    -35.0400E+06    -111.345E+06    -35.2793E+06    -111.105E+06    -10.2624E+06     1.07241E+06
             639     37.9733E-03     8.49572E-03     37.0107E-03     115.507E-03    -57.4345E-03    -58.0722E-03    -57.1694E-03     115.242E-03    -58.0722E-03     13.4138E-03     151.922E-03     121.894E+06    -12.1186E+06    -38.8847E+06    -145.167E+06    -38.9196E+06    -145.132E+06    -12.1186E+06    -1.77311E+06
             640     37.7615E-03     7.55069E-03     36.9989E-03     115.865E-03    -57.6802E-03    -58.1851E-03    -57.5198E-03     115.705E-03    -58.1851E-03     10.4713E-03     143.667E-03     157.036E+06    -10.3342E+06    -42.0033E+06    -180.781E+06    -42.0310E+06    -180.753E+06    -10.3342E+06    -1.70128E+06
             641     37.5746E-03     6.60689E-03     36.9892E-03     115.955E-03    -57.7013E-03    -58.2539E-03    -57.6044E-03     115.858E-03    -58.2539E-03     8.12245E-03     136.617E-03     181.348E+06    -14.4014E+06    -46.2339E+06    -209.535E+06    -46.2482E+06    -209.520E+06    -14.4014E+06    -1.30029E+06
             642     37.4137E-03     5.66290E-03     36.9826E-03     116.097E-03    -57.8099E-03    -58.2868E-03    -57.7554E-03     116.042E-03    -58.2868E-03     6.07633E-03     130.770E-03     190.659E+06    -22.3745E+06    -50.5430E+06    -225.539E+06    -50.5569E+06    -225.525E+06    -22.3745E+06    -900.110E+03
             643     37.2769E-03     4.71810E-03     36.9771E-03     116.328E-03    -57.9798E-03    -58.3481E-03    -57.9872E-03     116.301E-03    -58.3140E-03     4.20354E-03     126.452E-03     201.354E+06    -29.3281E+06    -55.2164E+06    -242.366E+06    -55.2293E+06    -242.353E+06    -29.3281E+06     294.025E+03
             644     37.1658E-03     3.77519E-03     36.9736E-03     116.460E-03    -58.0514E-03    -58.4086E-03    -58.1556E-03     116.449E-03    -58.2931E-03     2.73278E-03     123.023E-03     206.651E+06    -39.3920E+06    -59.7868E+06    -255.432E+06    -59.7965E+06    -255.422E+06    -39.3920E+06     930.098E+03
             645     37.0781E-03     2.83123E-03     36.9699E-03     116.398E-03    -58.0807E-03    -58.3177E-03    -58.1579E-03     116.394E-03    -58.2363E-03     1.59096E-03     120.263E-03     205.916E+06    -52.3069E+06    -63.9579E+06    -263.746E+06    -63.9641E+06    -263.740E+06    -52.3069E+06    -87.9802E+03
             646     37.0190E-03     1.88770E-03     36.9708E-03     116.296E-03    -57.9115E-03    -58.3844E-03    -58.0768E-03     116.295E-03    -58.2177E-03     954.543E-06     118.370E-03     205.315E+06    -62.9356E+06    -67.9881E+06    -270.710E+06    -67.9978E+06    -270.700E+06    -62.9356E+06    -549.550E+03
             647     36.9801E-03     943.392E-06     36.9681E-03     116.421E-03    -57.9807E-03    -58.4403E-03    -58.1773E-03     116.420E-03    -58.2427E-03     783.358E-06     117.553E-03     203.981E+06    -69.9223E+06    -71.5865E+06    -274.728E+06    -71.2440E+06    -274.715E+06    -70.2780E+06    -933.228E+03
             648     39.8289E-03     16.0535E-03     36.4503E-03     138.010E-03    -58.0960E-03    -79.9138E-03    -56.9831E-03     115.079E-03    -58.0960E-03     127.189E-03     428.761E-03     137.540E+06     134.424E+06     123.065E+06    -8.44201E+06    -8.41212E+06     134.394E+06     123.065E+06    -1.22950E+06
             649     39.2788E-03     15.1065E-03     36.2577E-03     144.167E-03    -58.0074E-03    -86.1597E-03    -56.7986E-03     114.806E-03    -58.0074E-03     152.437E-03     424.757E-03     128.786E+06     123.996E+06     97.8196E+06    -15.0311E+06    -14.9945E+06     123.959E+06     97.8196E+06    -1.47773E+06
             650     38.7928E-03     14.1649E-03     36.1142E-03     128.029E-03    -57.8385E-03    -70.1905E-03    -56.2871E-03     114.126E-03    -57.8385E-03     98.2052E-03     316.446E-03     118.480E+06     115.813E+06     55.8609E+06    -18.8086E+06    -18.7900E+06     115.794E+06     55.8609E+06    -850.034E+03
             651     38.3856E-03     13.2183E-03     36.0379E-03     118.777E-03    -57.6891E-03    -61.0875E-03    -56.0518E-03     113.741E-03    -57.6891E-03     58.3776E-03     256.998E-03     116.368E+06     107.901E+06     18.3538E+06    -22.7966E+06    -22.7422E+06     107.847E+06     18.3538E+06    -1.14779E+06
             652     38.0239E-03     12.2736E-03     35.9885E-03     116.514E-03    -57.6694E-03    -58.8451E-03    -56.4815E-03     114.151E-03    -57.6694E-03     39.7635E-03     219.149E-03     80.1811E+06     61.9177E+06    -3.51541E+06    -27.1542E+06    -27.0913E+06     61.8548E+06    -3.51541E+06    -962.408E+03
             653     37.6954E-03     11.3292E-03     35.9526E-03     115.847E-03    -57.6507E-03    -58.1965E-03    -56.8986E-03     114.685E-03    -57.7860E-03     28.0092E-03     194.193E-03     42.2256E+06     9.04120E+06    -20.8071E+06    -39.2587E+06    -30.3817E+06    -14.4152E+06    -6.22771E+06     1.02564E+06
             654     37.3985E-03     10.3845E-03     35.9279E-03     115.579E-03    -57.6093E-03    -57.9701E-03    -56.9522E-03     114.857E-03    -57.9045E-03     22.2899E-03     177.100E-03     58.2809E+06    -2.64862E+06    -30.9010E+06    -68.8356E+06    -31.3456E+06    -68.3910E+06    -2.64862E+06     2.89965E+06
             655     37.1265E-03     9.44063E-03     35.9062E-03     115.418E-03    -57.4340E-03    -57.9843E-03    -56.9374E-03     114.922E-03    -57.9843E-03     18.3162E-03     162.940E-03     90.7512E+06    -6.16067E+06    -31.1120E+06    -106.566E+06    -31.3646E+06    -106.313E+06    -6.16067E+06     1.55820E+06
             656     36.8807E-03     8.49466E-03     35.8891E-03     115.460E-03    -57.3757E-03    -58.0846E-03    -57.0932E-03     115.178E-03    -58.0846E-03     13.8369E-03     151.797E-03     123.343E+06    -10.4908E+06    -34.6448E+06    -144.098E+06    -34.6864E+06    -144.056E+06    -10.4908E+06    -1.00526E+06
             657     36.6628E-03     7.55117E-03     35.8767E-03     115.875E-03    -57.6710E-03    -58.2038E-03    -57.5097E-03     115.713E-03    -58.2038E-03     10.4594E-03     143.675E-03     159.075E+06    -10.4410E+06    -39.6448E+06    -182.081E+06    -39.6696E+06    -182.056E+06    -10.4410E+06    -1.55771E+06
             658     36.4710E-03     6.60644E-03     35.8676E-03     116.128E-03    -57.8538E-03    -58.2744E-03    -57.7647E-03     116.039E-03    -58.2744E-03     7.76386E-03     136.858E-03     182.822E+06    -12.5700E+06    -44.7608E+06    -209.340E+06    -44.7772E+06    -209.324E+06    -12.5700E+06    -852.201E+03
             659     36.3044E-03     5.66221E-03     35.8602E-03     116.295E-03    -58.0171E-03    -58.2783E-03    -57.9683E-03     116.247E-03    -58.2783E-03     5.74248E-03     131.058E-03     191.454E+06    -21.2479E+06    -51.5099E+06    -226.016E+06    -51.5243E+06    -226.002E+06    -21.2479E+06    -333.264E+03
             660     36.1641E-03     4.71946E-03     35.8548E-03     116.410E-03    -58.1254E-03    -58.2851E-03    -58.1346E-03     116.386E-03    -58.2510E-03     4.08121E-03     126.537E-03     200.288E+06    -31.1671E+06    -57.1162E+06    -243.137E+06    -57.1204E+06    -243.132E+06    -31.1671E+06    -401.329E+03
             661     36.0489E-03     3.77542E-03     35.8507E-03     116.174E-03    -57.9114E-03    -58.2631E-03    -57.9337E-03     116.163E-03    -58.2290E-03     2.81173E-03     122.686E-03     205.287E+06    -40.7569E+06    -61.0043E+06    -255.393E+06    -61.0062E+06    -255.391E+06    -40.7569E+06    -109.856E+03
             662     35.9609E-03     2.83122E-03     35.8492E-03     116.188E-03    -57.9454E-03    -58.2424E-03    -57.9555E-03     116.182E-03    -58.2268E-03     1.88441E-03     120.061E-03     204.493E+06    -52.9585E+06    -65.3684E+06    -263.315E+06    -65.3770E+06    -263.306E+06    -52.9585E+06     806.865E+03
             663     35.8967E-03     1.88711E-03     35.8471E-03     116.536E-03    -58.1037E-03    -58.4328E-03    -58.3963E-03     116.534E-03    -58.1381E-03     1.10091E-03     118.670E-03     203.604E+06    -63.6873E+06    -69.9269E+06    -270.319E+06    -69.9380E+06    -270.308E+06    -63.6873E+06     1.11447E+06
             664     35.8593E-03     944.981E-06     35.8468E-03     116.047E-03    -57.7050E-03    -58.3415E-03    -58.3404E-03     116.045E-03    -57.7050E-03     783.887E-06     117.220E-03     202.265E+06    -71.5226E+06    -74.3340E+06    -275.160E+06    -74.1788E+06    -275.146E+06    -71.6917E+06     742.610E+03
             665     38.8086E-03     16.0544E-03     35.3322E-03     136.886E-03    -58.1206E-03    -78.7656E-03    -56.1699E-03     114.290E-03    -58.1206E-03     125.865E-03     428.128E-03     137.256E+06     134.530E+06     123.093E+06    -8.08593E+06    -8.05377E+06     134.497E+06     123.093E+06    -1.23508E+06
             666     38.2443E-03     15.1106E-03     35.1326E-03     144.111E-03    -58.0348E-03    -86.0765E-03    -57.1584E-03     115.193E-03    -58.0348E-03     151.367E-03     425.478E-03     128.927E+06     124.242E+06     96.6081E+06    -15.2350E+06    -15.1854E+06     124.192E+06     96.6081E+06    -2.58142E+06
             667     37.7510E-03     14.1641E-03     34.9931E-03     128.231E-03    -57.8514E-03    -70.3793E-03    -56.6235E-03     114.475E-03    -57.8514E-03     97.8960E-03     316.974E-03     119.865E+06     116.380E+06     56.3909E+06    -20.3681E+06    -20.3398E+06     116.352E+06     56.3909E+06    -1.91427E+06
             668     37.3358E-03     13.2182E-03     34.9176E-03     118.559E-03    -57.7182E-03    -60.8403E-03    -55.7957E-03     113.514E-03    -57.7182E-03     58.4711E-03     256.642E-03     117.403E+06     108.091E+06     22.2673E+06    -24.9593E+06    -24.9441E+06     108.076E+06     22.2673E+06    -240.903E+03
             669     36.9617E-03     12.2731E-03     34.8646E-03     116.568E-03    -57.6959E-03    -58.8720E-03    -56.4990E-03     114.195E-03    -57.6959E-03     39.5946E-03     219.428E-03     79.3278E+06     60.0363E+06    -2.23700E+06    -29.0474E+06    -28.9856E+06     59.9745E+06    -2.23700E+06     781.935E+03
             670     36.6276E-03     11.3291E-03     34.8315E-03     115.587E-03    -57.5538E-03    -58.0332E-03    -56.6583E-03     114.452E-03    -57.7941E-03     27.7678E-03     194.261E-03     38.2866E+06     4.00913E+06    -22.0444E+06    -39.8874E+06    -31.4098E+06    -16.3190E+06    -10.1939E+06     651.431E+03
             671     36.3220E-03     10.3840E-03     34.8060E-03     115.567E-03    -57.6501E-03    -57.9172E-03    -56.9002E-03     114.814E-03    -57.9134E-03     22.6986E-03     176.980E-03     52.2987E+06    -8.69071E+06    -32.3676E+06    -67.9739E+06    -32.6029E+06    -67.7386E+06    -8.69071E+06    -61.9223E+03
             672     36.0419E-03     9.43908E-03     34.7840E-03     115.766E-03    -57.7652E-03    -58.0009E-03    -57.2840E-03     115.281E-03    -57.9972E-03     18.1208E-03     163.451E-03     86.2346E+06    -9.13847E+06    -33.4400E+06    -104.791E+06    -33.4574E+06    -104.774E+06    -9.13847E+06    -19.3846E+03
             673     35.7910E-03     8.49580E-03     34.7681E-03     115.644E-03    -57.5606E-03    -58.0836E-03    -57.2850E-03     115.369E-03    -58.0836E-03     13.6923E-03     151.903E-03     121.202E+06    -10.3759E+06    -35.6557E+06    -142.138E+06    -35.6718E+06    -142.122E+06    -10.3759E+06     533.049E+03
             674     35.5651E-03     7.55014E-03     34.7544E-03     115.893E-03    -57.7037E-03    -58.1896E-03    -57.5456E-03     115.735E-03    -58.1896E-03     10.3474E-03     143.736E-03     159.266E+06    -10.8048E+06    -40.5329E+06    -182.823E+06    -40.5423E+06    -182.814E+06    -10.8048E+06    -190.194E+03
             675     35.3678E-03     6.60716E-03     34.7452E-03     116.244E-03    -57.9978E-03    -58.2460E-03    -57.9130E-03     116.159E-03    -58.2459E-03     7.58155E-03     136.965E-03     182.957E+06    -12.5493E+06    -46.0466E+06    -209.938E+06    -46.0536E+06    -209.931E+06    -12.5493E+06     114.009E+03
             676     35.1967E-03     5.66361E-03     34.7381E-03     116.239E-03    -58.0075E-03    -58.2317E-03    -57.9579E-03     116.190E-03    -58.2316E-03     5.83279E-03     130.975E-03     191.199E+06    -20.4856E+06    -50.6713E+06    -224.949E+06    -50.6786E+06    -224.942E+06    -20.4856E+06     489.120E+03
             677     35.0513E-03     4.71907E-03     34.7321E-03     116.101E-03    -57.8786E-03    -58.2224E-03    -57.8499E-03     116.072E-03    -58.2224E-03     4.36483E-03     126.214E-03     200.619E+06    -31.8800E+06    -56.1575E+06    -243.505E+06    -56.1631E+06    -243.500E+06    -31.8800E+06    -289.489E+03
             678     34.9342E-03     3.77518E-03     34.7296E-03     116.168E-03    -57.8907E-03    -58.2770E-03    -57.9327E-03     116.155E-03    -58.2223E-03     2.92704E-03     122.790E-03     204.879E+06    -43.5705E+06    -62.3009E+06    -257.157E+06    -62.3048E+06    -257.154E+06    -43.5705E+06     74.0759E+03
             679     34.8421E-03     2.83101E-03     34.7269E-03     116.326E-03    -58.0565E-03    -58.2696E-03    -58.1210E-03     116.320E-03    -58.1993E-03     1.95390E-03     120.294E-03     203.174E+06    -52.7745E+06    -67.2236E+06    -262.776E+06    -67.2343E+06    -262.766E+06    -52.7745E+06     1.14485E+06
             680     34.7759E-03     1.88793E-03     34.7246E-03     116.284E-03    -58.0159E-03    -58.2679E-03    -58.1420E-03     116.282E-03    -58.1399E-03     1.00175E-03     118.402E-03     202.077E+06    -62.1501E+06    -71.4268E+06    -268.672E+06    -71.4378E+06    -268.661E+06    -62.1501E+06     582.392E+03
             681     34.7374E-03     943.263E-06     34.7246E-03     116.157E-03    -57.7239E-03    -58.4331E-03    -58.3155E-03     116.156E-03    -57.8407E-03     454.822E-06     117.383E-03     202.291E+06    -69.9939E+06    -73.6026E+06    -274.050E+06    -73.6197E+06    -274.033E+06    -69.9939E+06    -106.760E+03
             682     37.7898E-03     16.0543E-03     34.2101E-03     137.269E-03    -58.1421E-03    -79.1274E-03    -55.8407E-03     113.983E-03    -58.1421E-03     127.030E-03     429.085E-03     139.132E+06     136.067E+06     123.748E+06    -8.80796E+06    -8.79672E+06     136.056E+06     123.748E+06    -973.946E+03
             683     37.2146E-03     15.1067E-03     34.0105E-03     144.940E-03    -58.0774E-03    -86.8627E-03    -56.9737E-03     115.051E-03    -58.0774E-03     153.944E-03     426.461E-03     130.892E+06     125.693E+06     96.2442E+06    -16.4407E+06    -16.4124E+06     125.665E+06     96.2442E+06    -1.94063E+06
             684     36.7118E-03     14.1634E-03     33.8697E-03     128.711E-03    -57.8843E-03    -70.8267E-03    -57.1591E-03     115.043E-03    -57.8843E-03     97.5838E-03     317.995E-03     121.091E+06     114.764E+06     53.8163E+06    -23.4652E+06    -23.4215E+06     114.720E+06     53.8163E+06    -2.34430E+06
             685     36.2905E-03     13.2190E-03     33.7973E-03     118.889E-03    -57.7229E-03    -61.1658E-03    -56.1666E-03     113.890E-03    -57.7229E-03     58.5446E-03     256.975E-03     117.389E+06     105.605E+06     20.1744E+06    -27.5627E+06    -27.5351E+06     105.577E+06     20.1744E+06    -1.00204E+06
             686     35.9044E-03     12.2738E-03     33.7414E-03     116.206E-03    -57.6469E-03    -58.5587E-03    -56.0462E-03     113.754E-03    -57.7076E-03     40.0824E-03     218.842E-03     78.5693E+06     59.1276E+06    -2.78262E+06    -29.1272E+06    -29.0796E+06     59.0800E+06    -2.78262E+06     706.445E+03
             687     35.5636E-03     11.3283E-03     33.7112E-03     115.553E-03    -57.6580E-03    -57.8955E-03    -56.5933E-03     114.417E-03    -57.8236E-03     27.7607E-03     194.309E-03     36.5290E+06     3.85972E+06    -22.2034E+06    -37.7449E+06    -30.8556E+06    -14.5082E+06    -10.7248E+06     564.944E+03
             688     35.2475E-03     10.3833E-03     33.6834E-03     115.781E-03    -57.7752E-03    -58.0061E-03    -57.0880E-03     115.027E-03    -57.9393E-03     22.7344E-03     177.108E-03     49.9929E+06    -9.94388E+06    -33.5823E+06    -66.5277E+06    -33.7716E+06    -66.3383E+06    -9.94388E+06    -272.173E+03
             689     34.9607E-03     9.43995E-03     33.6621E-03     115.973E-03    -57.9042E-03    -58.0693E-03    -57.4828E-03     115.498E-03    -58.0151E-03     17.9114E-03     163.682E-03     85.5076E+06    -10.1021E+06    -37.4283E+06    -105.877E+06    -37.4351E+06    -105.870E+06    -10.1021E+06    -613.425E+03
             690     34.7014E-03     8.49495E-03     33.6455E-03     115.960E-03    -57.8337E-03    -58.1260E-03    -57.6227E-03     115.698E-03    -58.0755E-03     13.3809E-03     152.233E-03     120.097E+06    -10.1249E+06    -39.9062E+06    -142.233E+06    -39.9123E+06    -142.227E+06    -10.1249E+06     196.103E+03
             691     34.4706E-03     7.55208E-03     33.6332E-03     115.817E-03    -57.6671E-03    -58.1498E-03    -57.5056E-03     115.655E-03    -58.1498E-03     10.4924E-03     143.483E-03     157.522E+06    -11.6387E+06    -42.5341E+06    -182.300E+06    -42.5388E+06    -182.295E+06    -11.6387E+06     584.776E+03
             692     34.2654E-03     6.60684E-03     33.6224E-03     115.976E-03    -57.7627E-03    -58.2136E-03    -57.6652E-03     115.879E-03    -58.2135E-03     8.14740E-03     136.592E-03     182.274E+06    -15.0431E+06    -46.4529E+06    -210.964E+06    -46.4540E+06    -210.963E+06    -15.0431E+06     50.3389E+03
             693     34.0897E-03     5.66304E-03     33.6160E-03     116.099E-03    -57.8611E-03    -58.2376E-03    -57.8053E-03     116.043E-03    -58.2376E-03     6.15664E-03     130.800E-03     190.835E+06    -21.0539E+06    -50.8034E+06    -224.991E+06    -50.8088E+06    -224.985E+06    -21.0539E+06     553.508E+03
             694     33.9405E-03     4.71907E-03     33.6108E-03     116.141E-03    -57.8862E-03    -58.2549E-03    -57.8572E-03     116.112E-03    -58.2549E-03     4.40313E-03     126.297E-03     200.781E+06    -30.0175E+06    -56.6627E+06    -242.749E+06    -56.6808E+06    -242.731E+06    -30.0175E+06     1.33425E+06
             695     33.8186E-03     3.77476E-03     33.6072E-03     116.371E-03    -58.0815E-03    -58.2900E-03    -58.1268E-03     116.359E-03    -58.2318E-03     2.91156E-03     122.970E-03     205.327E+06    -41.6923E+06    -63.1980E+06    -256.908E+06    -63.2164E+06    -256.889E+06    -41.6923E+06     685.198E+03
             696     33.7233E-03     2.83201E-03     33.6042E-03     116.286E-03    -58.0598E-03    -58.2262E-03    -58.1124E-03     116.280E-03    -58.1680E-03     1.92582E-03     120.195E-03     202.635E+06    -52.8619E+06    -67.6825E+06    -262.450E+06    -67.6890E+06    -262.443E+06    -52.8619E+06    -177.721E+03
             697     33.6563E-03     1.88754E-03     33.6034E-03     116.087E-03    -57.9294E-03    -58.1579E-03    -57.9270E-03     116.085E-03    -58.1579E-03     1.18533E-03     118.235E-03     200.814E+06    -63.0780E+06    -70.5864E+06    -267.503E+06    -70.5903E+06    -267.499E+06    -63.0780E+06    -532.677E+03
             698     33.6159E-03     943.851E-06     33.6026E-03     116.327E-03    -58.0119E-03    -58.3148E-03    -58.1940E-03     116.326E-03    -58.1322E-03     316.231E-06     117.601E-03     201.758E+06    -70.6411E+06    -74.2852E+06    -274.194E+06    -73.4200E+06    -274.185E+06    -71.5152E+06    -931.150E+03
             699     36.7812E-03     16.0528E-03     33.0932E-03     136.963E-03    -58.1788E-03    -78.7837E-03    -55.4241E-03     113.603E-03    -58.1788E-03     126.945E-03     429.103E-03     139.288E+06     137.750E+06     125.211E+06    -7.37669E+06    -7.37008E+06     137.743E+06     125.211E+06    -376.518E+03
             700     36.1897E-03     15.1071E-03     32.8857E-03     145.012E-03    -58.1295E-03    -86.8824E-03    -56.9705E-03     115.100E-03    -58.1295E-03     153.974E-03     426.537E-03     131.268E+06     126.541E+06     96.9713E+06    -16.0423E+06    -16.0292E+06     126.528E+06     96.9713E+06    -631.326E+03
             701     35.6786E-03     14.1622E-03     32.7475E-03     128.671E-03    -57.9283E-03    -70.7430E-03    -57.1911E-03     115.119E-03    -57.9283E-03     97.2203E-03     317.936E-03     121.069E+06     113.671E+06     51.6376E+06    -24.3910E+06    -24.3572E+06     113.637E+06     51.6376E+06    -1.18494E+06
             702     35.2455E-03     13.2185E-03     32.6729E-03     119.114E-03    -57.7604E-03    -61.3539E-03    -56.4118E-03     114.172E-03    -57.7604E-03     58.1742E-03     257.548E-03     117.413E+06     102.938E+06     17.2078E+06    -30.4378E+06    -30.3965E+06     102.897E+06     17.2078E+06    -1.08050E+06
             703     34.8554E-03     12.2725E-03     32.6234E-03     116.305E-03    -57.6819E-03    -58.6227E-03    -56.1156E-03     113.858E-03    -57.7426E-03     40.3452E-03     218.642E-03     80.6034E+06     57.8719E+06    -4.24232E+06    -33.0396E+06    -33.0193E+06     57.8516E+06    -4.24232E+06    -673.055E+03
             704     34.4990E-03     11.3275E-03     32.5864E-03     115.758E-03    -57.7531E-03    -58.0050E-03    -56.7415E-03     114.593E-03    -57.8515E-03     27.9589E-03     194.139E-03     37.8532E+06     4.75940E+06    -23.4938E+06    -38.1823E+06    -33.3193E+06    -12.7574E+06    -10.8400E+06    -225.658E+03
             705     34.1788E-03     10.3842E-03     32.5632E-03     115.966E-03    -57.8555E-03    -58.1109E-03    -57.2762E-03     115.228E-03    -57.9522E-03     22.5998E-03     177.277E-03     49.2863E+06    -9.88143E+06    -34.1576E+06    -65.3407E+06    -34.4726E+06    -65.0257E+06    -9.88143E+06    -104.597E+03
             706     33.8798E-03     9.43867E-03     32.5385E-03     116.023E-03    -57.8634E-03    -58.1594E-03    -57.5147E-03     115.528E-03    -58.0133E-03     18.1563E-03     163.515E-03     85.2634E+06    -11.1126E+06    -36.6625E+06    -106.122E+06    -36.6691E+06    -106.116E+06    -11.1126E+06    -112.537E+03
             707     33.6153E-03     8.49625E-03     32.5238E-03     115.952E-03    -57.8288E-03    -58.1236E-03    -57.6176E-03     115.691E-03    -58.0731E-03     13.4367E-03     152.302E-03     120.272E+06    -11.7861E+06    -40.0226E+06    -143.592E+06    -40.0250E+06    -143.590E+06    -11.7861E+06     16.3652E+03
             708     33.3761E-03     7.55089E-03     32.5107E-03     115.891E-03    -57.7514E-03    -58.1401E-03    -57.5770E-03     115.717E-03    -58.1401E-03     10.8831E-03     143.437E-03     155.618E+06    -13.8372E+06    -43.6500E+06    -182.186E+06     -43.651E+06    -182.185E+06    -13.8372E+06     278.017E+03
             709     33.1665E-03     6.60726E-03     32.5017E-03     115.830E-03    -57.6159E-03    -58.2138E-03    -57.5159E-03     115.730E-03    -58.2138E-03     8.24886E-03     136.369E-03     180.162E+06    -16.6340E+06    -48.3538E+06    -210.527E+06    -48.3573E+06    -210.523E+06    -16.6340E+06     331.973E+03
             710     32.9828E-03     5.66252E-03     32.4931E-03     116.024E-03    -57.7604E-03    -58.2632E-03    -57.7064E-03     115.970E-03    -58.2632E-03     6.01923E-03     130.779E-03     190.324E+06    -22.4990E+06    -53.7696E+06    -226.483E+06    -53.7751E+06    -226.478E+06    -22.4990E+06     274.622E+03
             711     32.8302E-03     4.71881E-03     32.4893E-03     116.409E-03    -58.1018E-03    -58.3073E-03    -58.1142E-03     116.381E-03    -58.2670E-03     4.37849E-03     126.535E-03     199.349E+06    -29.8290E+06    -58.1440E+06    -241.800E+06    -58.1617E+06    -241.782E+06    -29.8290E+06     674.255E+03
             712     32.7027E-03     3.77568E-03     32.4840E-03     116.333E-03    -58.0641E-03    -58.2691E-03    -58.0943E-03     116.320E-03    -58.2253E-03     2.93823E-03     122.832E-03     205.052E+06    -39.4377E+06    -61.7821E+06    -254.706E+06    -61.8001E+06    -254.688E+06    -39.4377E+06     22.3663E+03
             713     32.6062E-03     2.83110E-03     32.4830E-03     116.125E-03    -57.9318E-03    -58.1930E-03    -57.9303E-03     116.120E-03    -58.1894E-03     1.83998E-03     120.060E-03     203.265E+06    -53.3457E+06    -66.1680E+06    -262.661E+06    -66.1725E+06    -262.657E+06    -53.3457E+06    -810.841E+03
             714     32.5360E-03     1.88730E-03     32.4812E-03     116.207E-03    -57.9954E-03    -58.2118E-03    -57.9926E-03     116.204E-03    -58.2118E-03     1.32809E-03     118.402E-03     200.899E+06    -65.0061E+06    -70.3040E+06    -268.487E+06    -70.3061E+06    -268.485E+06    -65.0061E+06    -511.320E+03
             715     32.4940E-03     943.606E-06     32.4803E-03     116.451E-03    -57.9717E-03    -58.4797E-03    -58.3838E-03     116.450E-03    -58.0666E-03     753.198E-06     117.590E-03     201.392E+06    -71.0884E+06    -74.8908E+06    -274.348E+06    -74.0220E+06    -274.343E+06    -71.9624E+06     295.306E+03
             716     35.7723E-03     16.0525E-03     31.9684E-03     137.044E-03    -58.1687E-03    -78.8750E-03    -55.5895E-03     113.758E-03    -58.1687E-03     126.806E-03     428.887E-03     140.113E+06     138.297E+06     126.022E+06    -7.54921E+06    -7.53724E+06     138.285E+06     126.022E+06    -167.441E+03
             717     35.1755E-03     15.1077E-03     31.7659E-03     144.853E-03    -58.1150E-03    -86.7380E-03    -56.7993E-03     114.914E-03    -58.1150E-03     153.992E-03     426.473E-03     130.797E+06     125.251E+06     96.5671E+06    -16.5026E+06    -16.4898E+06     125.238E+06     96.5671E+06     301.172E+03
             718     34.6496E-03     14.1617E-03     31.6234E-03     127.950E-03    -57.9349E-03    -70.0156E-03    -56.5338E-03     114.469E-03    -57.9349E-03     96.3157E-03     317.208E-03     119.942E+06     112.959E+06     50.5333E+06    -23.6965E+06    -23.6865E+06     112.949E+06     50.5333E+06     555.135E+03
             719     34.2075E-03     13.2166E-03     31.5511E-03     118.710E-03    -57.8041E-03    -60.9057E-03    -56.1459E-03     113.950E-03    -57.8041E-03     57.0449E-03     257.638E-03     116.751E+06     104.185E+06     17.8818E+06    -28.2686E+06    -28.2492E+06     104.166E+06     17.8818E+06    -471.188E+03
             720     33.8071E-03     12.2728E-03     31.5007E-03     116.897E-03    -57.7766E-03    -59.1200E-03    -56.7137E-03     114.490E-03    -57.7766E-03     40.0508E-03     219.350E-03     80.1953E+06     58.5417E+06    -3.65918E+06    -31.7976E+06    -31.7728E+06     58.5168E+06    -3.65918E+06    -861.818E+03
             721     33.4424E-03     11.3284E-03     31.4652E-03     115.957E-03    -57.8000E-03    -58.1571E-03    -56.9697E-03     114.809E-03    -57.8392E-03     27.8881E-03     194.181E-03     35.7359E+06     1.77089E+06    -24.0389E+06    -38.9460E+06    -33.6091E+06    -13.6075E+06    -13.9973E+06    -1.90880E+06
             722     33.1100E-03     10.3827E-03     31.4400E-03     115.909E-03    -57.8774E-03    -58.0314E-03    -57.2445E-03     115.180E-03    -57.9358E-03     22.3769E-03     177.162E-03     48.4165E+06    -12.1089E+06    -33.2051E+06    -66.6168E+06    -33.7243E+06    -66.0975E+06    -12.1089E+06    -2.15269E+06
             723     32.8044E-03     9.44036E-03     31.4167E-03     115.860E-03    -57.7518E-03    -58.1087E-03    -57.3677E-03     115.381E-03    -58.0131E-03     17.9778E-03     163.359E-03     86.5940E+06    -11.6890E+06    -34.3960E+06    -107.290E+06    -34.4317E+06    -107.254E+06    -11.6890E+06    -447.243E+03
             724     32.5301E-03     8.49426E-03     31.4015E-03     115.853E-03    -57.7481E-03    -58.1053E-03    -57.4837E-03     115.589E-03    -58.1053E-03     13.3676E-03     152.257E-03     123.916E+06    -9.29199E+06    -36.9385E+06    -144.680E+06    -36.9811E+06    -144.638E+06    -9.29199E+06     1.23149E+06
             725     32.2845E-03     7.55128E-03     31.3890E-03     116.031E-03    -57.8478E-03    -58.1834E-03    -57.6846E-03     115.868E-03    -58.1834E-03     10.5411E-03     143.708E-03     157.428E+06    -10.0721E+06    -42.8276E+06    -181.271E+06    -42.8851E+06    -181.214E+06    -10.0721E+06     2.01732E+06
             726     32.0671E-03     6.60705E-03     31.3791E-03     116.045E-03    -57.7983E-03    -58.2470E-03    -57.7230E-03     115.946E-03    -58.2235E-03     8.17251E-03     136.569E-03     178.973E+06    -15.4516E+06    -48.6319E+06    -208.663E+06    -48.6573E+06    -208.637E+06    -15.4516E+06     602.334E+03
             727     31.8796E-03     5.66299E-03     31.3726E-03     116.123E-03    -57.8575E-03    -58.2654E-03    -57.8277E-03     116.069E-03    -58.2418E-03     6.03687E-03     130.830E-03     190.981E+06    -22.4821E+06    -52.7017E+06    -226.730E+06    -52.7134E+06    -226.718E+06    -22.4821E+06    -675.394E+03
             728     31.7183E-03     4.71898E-03     31.3653E-03     116.165E-03    -57.8781E-03    -58.2867E-03    -57.8895E-03     116.136E-03    -58.2464E-03     4.40091E-03     126.255E-03     198.825E+06    -31.5091E+06    -56.4701E+06    -241.597E+06    -56.4828E+06    -241.584E+06    -31.5091E+06    -1.34015E+06
             729     31.5895E-03     3.77514E-03     31.3631E-03     116.230E-03    -57.9241E-03    -58.3064E-03    -57.9678E-03     116.217E-03    -58.2490E-03     3.01413E-03     122.794E-03     204.370E+06    -41.2517E+06    -60.6947E+06    -254.609E+06    -60.7061E+06    -254.597E+06    -41.2517E+06    -1.14448E+06
             730     31.4882E-03     2.83131E-03     31.3606E-03     116.331E-03    -58.0719E-03    -58.2592E-03    -58.0969E-03     116.326E-03    -58.2286E-03     1.87587E-03     120.277E-03     204.383E+06    -52.4082E+06    -65.4917E+06    -262.997E+06    -65.4929E+06    -262.995E+06    -52.4082E+06    -69.1720E+03
             731     31.4160E-03     1.88761E-03     31.3593E-03     116.324E-03    -58.0849E-03    -58.2394E-03    -58.1259E-03     116.323E-03    -58.1968E-03     979.032E-06     118.432E-03     203.129E+06    -62.9019E+06    -69.6440E+06    -269.294E+06    -69.6465E+06    -269.292E+06    -62.9019E+06     226.698E+03
             732     31.3725E-03     943.347E-06     31.3583E-03     116.329E-03    -57.8801E-03    -58.4491E-03    -58.3564E-03     116.328E-03    -57.9715E-03     883.980E-06     117.331E-03     202.551E+06    -69.3497E+06    -74.1737E+06    -274.259E+06    -72.6670E+06    -274.252E+06    -70.8635E+06     415.887E+03
             733     34.7786E-03     16.0559E-03     30.8505E-03     137.789E-03    -58.1406E-03    -79.6487E-03    -56.0003E-03     114.141E-03    -58.1406E-03     127.240E-03     429.221E-03     140.681E+06     138.032E+06     125.963E+06    -8.29467E+06    -8.24590E+06     137.983E+06     125.963E+06     918.743E+03
             734     34.1649E-03     15.1073E-03     30.6432E-03     145.259E-03    -58.0804E-03    -87.1786E-03    -56.7694E-03     114.850E-03    -58.0804E-03     155.120E-03     426.841E-03     131.076E+06     125.734E+06     97.2540E+06    -16.2321E+06    -16.1807E+06     125.683E+06     97.2540E+06     1.35275E+06
             735     33.6292E-03     14.1639E-03     30.5009E-03     127.419E-03    -57.9044E-03    -69.5141E-03    -56.2133E-03     114.118E-03    -57.9044E-03     95.5724E-03     317.160E-03     119.739E+06     113.761E+06     50.1661E+06    -22.4490E+06    -22.4389E+06     113.751E+06     50.1661E+06     93.0672E+03
             736     33.1781E-03     13.2171E-03     30.4319E-03     118.431E-03    -57.7843E-03    -60.6465E-03    -55.8668E-03     113.651E-03    -57.7843E-03     57.0712E-03     257.445E-03     115.608E+06     103.811E+06     15.6235E+06    -26.7219E+06    -26.7157E+06     103.805E+06     15.6235E+06    -37.6025E+03
             737     32.7600E-03     12.2717E-03     30.3747E-03     116.982E-03    -57.7722E-03    -59.2094E-03    -56.8516E-03     114.624E-03    -57.7722E-03     39.4857E-03     219.469E-03     79.9027E+06     60.5927E+06    -2.87064E+06    -28.9812E+06    -28.9103E+06     60.5219E+06    -2.87064E+06    -801.335E+03
             738     32.3911E-03     11.3281E-03     30.3456E-03     116.099E-03    -57.8224E-03    -58.2769E-03    -57.1780E-03     115.002E-03    -57.8239E-03     27.4089E-03     194.413E-03     36.3713E+06     3.53178E+06    -22.1116E+06    -38.0544E+06    -31.6490E+06    -12.0757E+06    -12.9096E+06    -2.18827E+06
             739     32.0449E-03     10.3847E-03     30.3156E-03     115.739E-03    -57.7411E-03    -57.9983E-03    -57.0941E-03     115.012E-03    -57.9184E-03     22.3156E-03     176.992E-03     49.6456E+06    -12.7002E+06    -34.1024E+06    -68.9144E+06    -34.4748E+06    -68.5420E+06    -12.7002E+06    -2.40644E+06
             740     31.7330E-03     9.43867E-03     30.2968E-03     115.762E-03    -57.6840E-03    -58.0780E-03    -57.2859E-03     115.297E-03    -58.0111E-03     17.7245E-03     163.419E-03     88.4103E+06    -11.6813E+06    -37.1713E+06    -109.938E+06    -37.2455E+06    -109.864E+06    -11.6813E+06    -1.39348E+06
             741     31.4473E-03     8.49562E-03     30.2780E-03     115.846E-03    -57.6788E-03    -58.1667E-03    -57.4962E-03     115.596E-03    -58.0998E-03     12.9432E-03     152.131E-03     124.634E+06    -9.95113E+06    -39.6664E+06    -146.711E+06    -39.7086E+06    -146.668E+06    -9.95113E+06     1.26711E+06
             742     31.1952E-03     7.55099E-03     30.2675E-03     115.906E-03    -57.7214E-03    -58.1849E-03    -57.5727E-03     115.758E-03    -58.1849E-03     10.1228E-03     143.574E-03     157.402E+06    -7.85373E+06    -41.0873E+06    -179.192E+06    -41.1454E+06    -179.134E+06    -7.85373E+06     2.16663E+06
             743     30.9698E-03     6.60659E-03     30.2570E-03     116.149E-03    -57.9096E-03    -58.2398E-03    -57.8352E-03     116.051E-03    -58.2163E-03     8.13035E-03     136.665E-03     178.359E+06    -13.8520E+06    -44.7728E+06    -205.610E+06    -44.7987E+06    -205.585E+06    -13.8520E+06     672.094E+03
             744     30.7752E-03     5.66348E-03     30.2496E-03     116.145E-03    -57.9061E-03    -58.2386E-03    -57.8751E-03     116.090E-03    -58.2150E-03     6.13454E-03     130.816E-03     190.754E+06    -23.6235E+06    -50.4663E+06    -226.361E+06    -50.4856E+06    -226.341E+06    -23.6235E+06    -1.12562E+06
             745     30.6107E-03     4.71931E-03     30.2447E-03     115.962E-03    -57.7237E-03    -58.2381E-03    -57.6932E-03     115.931E-03    -58.2381E-03     4.48468E-03     126.034E-03     199.117E+06    -32.8716E+06    -55.4338E+06    -242.277E+06    -55.4526E+06    -242.258E+06    -32.8716E+06    -1.42781E+06
             746     30.4751E-03     3.77443E-03     30.2405E-03     116.196E-03    -57.9073E-03    -58.2884E-03    -57.9107E-03     116.182E-03    -58.2713E-03     3.05088E-03     122.758E-03     204.521E+06    -43.4705E+06    -60.7714E+06    -256.070E+06    -60.7821E+06    -256.060E+06    -43.4705E+06    -871.669E+03
             747     30.3705E-03     2.83118E-03     30.2382E-03     116.539E-03    -58.1958E-03    -58.3428E-03    -58.2913E-03     116.533E-03    -58.2414E-03     1.84334E-03     120.458E-03     205.017E+06    -52.8008E+06    -65.5828E+06    -263.896E+06    -65.5856E+06    -263.893E+06    -52.8008E+06    -342.801E+03
             748     30.2960E-03     1.88759E-03     30.2371E-03     116.411E-03    -58.1286E-03    -58.2823E-03    -58.2810E-03     116.410E-03    -58.1286E-03     889.483E-06     118.422E-03     203.707E+06    -61.6951E+06    -69.5761E+06    -269.212E+06    -69.5824E+06    -269.206E+06    -61.6951E+06     623.493E+03
             749     30.2510E-03     944.492E-06     30.2363E-03     116.066E-03    -57.9541E-03    -58.1119E-03    -58.1033E-03     116.065E-03    -57.9613E-03     941.707E-06     117.098E-03     202.066E+06    -68.5718E+06    -73.8457E+06    -273.220E+06    -72.3389E+06    -273.213E+06    -70.0857E+06     809.470E+03
             750     33.7897E-03     16.0523E-03     29.7333E-03     138.368E-03    -58.1476E-03    -80.2201E-03    -56.3348E-03     114.482E-03    -58.1476E-03     128.313E-03     428.912E-03     139.239E+06     136.280E+06     124.573E+06    -8.44066E+06    -8.39751E+06     136.237E+06     124.573E+06     967.501E+03
             751     33.1591E-03     15.1094E-03     29.5166E-03     145.747E-03    -58.0818E-03    -87.6649E-03    -56.9351E-03     115.017E-03    -58.0818E-03     156.285E-03     426.416E-03     130.283E+06     126.249E+06      97.297E+06    -14.8916E+06    -14.8357E+06     126.193E+06      97.297E+06     1.80210E+06
             752     32.6187E-03     14.1621E-03     29.3839E-03     127.952E-03    -57.8996E-03    -70.0521E-03    -56.5491E-03     114.449E-03    -57.8996E-03     96.5014E-03     317.358E-03     120.132E+06     115.637E+06     51.5668E+06    -21.2963E+06    -21.2730E+06     115.614E+06     51.5668E+06     979.854E+03
             753     32.1486E-03     13.2178E-03     29.3057E-03     118.931E-03    -57.7469E-03    -61.1844E-03    -56.4285E-03     114.175E-03    -57.7469E-03     56.9114E-03     257.530E-03     116.544E+06     105.198E+06     16.5109E+06    -26.3216E+06    -26.2931E+06     105.170E+06     16.5109E+06    -305.539E+03
             754     31.7269E-03     12.2735E-03     29.2568E-03     116.429E-03    -57.7221E-03    -58.7072E-03    -56.4037E-03     114.126E-03    -57.7221E-03     39.2400E-03     218.630E-03     81.1521E+06     61.4661E+06    -3.61760E+06    -29.2888E+06    -29.1750E+06     61.3523E+06    -3.61760E+06    -743.014E+03
             755     31.3377E-03     11.3286E-03     29.2184E-03     115.886E-03    -57.7911E-03    -58.0951E-03    -56.9666E-03     114.772E-03    -57.8051E-03     27.2761E-03     194.060E-03     37.0858E+06     4.90158E+06    -22.4464E+06    -37.2511E+06    -31.6331E+06    -11.1309E+06    -12.0320E+06    -942.526E+03
             756     30.9894E-03     10.3836E-03     29.1980E-03     115.806E-03    -57.7297E-03    -58.0762E-03    -57.2080E-03     115.108E-03    -57.9003E-03     21.9465E-03     177.117E-03     50.1532E+06    -12.3459E+06    -34.4165E+06    -68.8222E+06    -34.6731E+06    -68.5657E+06    -12.3459E+06    -1.14641E+06
             757     30.6607E-03     9.44001E-03     29.1713E-03     115.728E-03    -57.5831E-03    -58.1450E-03    -57.2684E-03     115.251E-03    -57.9821E-03     17.8131E-03     163.208E-03     89.7825E+06    -13.0459E+06    -37.9273E+06    -112.541E+06    -37.9749E+06    -112.494E+06    -13.0459E+06    -504.121E+03
             758     30.3706E-03     8.49578E-03     29.1581E-03     115.737E-03    -57.5772E-03    -58.1600E-03    -57.4334E-03     115.490E-03    -58.0565E-03     13.0292E-03     151.977E-03     122.147E+06    -14.0094E+06    -41.0525E+06    -147.346E+06    -41.0693E+06    -147.329E+06    -14.0094E+06    -690.062E+03
             759     30.1070E-03     7.55101E-03     29.1447E-03     115.932E-03    -57.7619E-03    -58.1702E-03    -57.6417E-03     115.775E-03    -58.1335E-03     10.3008E-03     143.513E-03     154.152E+06    -12.6608E+06    -42.6472E+06    -179.598E+06    -42.6659E+06    -179.579E+06    -12.6608E+06    -680.647E+03
             760     29.8749E-03     6.60775E-03     29.1350E-03     115.936E-03    -57.7530E-03    -58.1826E-03    -57.6628E-03     115.845E-03    -58.1826E-03     7.86816E-03     136.472E-03     176.915E+06    -15.5332E+06    -44.9491E+06     -205.28E+06    -44.9608E+06    -205.268E+06    -15.5332E+06     794.205E+03
             761     29.6730E-03     5.66262E-03     29.1277E-03     115.927E-03    -57.7174E-03    -58.2092E-03    -57.6633E-03     115.872E-03    -58.2092E-03     6.03746E-03     130.597E-03     188.677E+06    -25.0517E+06    -50.1483E+06    -225.009E+06    -50.1655E+06    -224.992E+06    -25.0517E+06     234.125E+03
             762     29.5023E-03     4.71878E-03     29.1225E-03     116.214E-03    -57.9052E-03    -58.3084E-03    -57.9536E-03     116.185E-03    -58.2318E-03     4.36010E-03     126.227E-03     199.043E+06    -33.6130E+06    -55.9890E+06    -242.891E+06    -55.9976E+06    -242.882E+06    -33.6130E+06    -649.502E+03
             763     29.3628E-03     3.77542E-03     29.1190E-03     116.267E-03    -57.9767E-03    -58.2906E-03    -58.0406E-03     116.255E-03    -58.2140E-03     2.83608E-03     122.738E-03     204.349E+06    -44.3008E+06    -60.8787E+06    -256.394E+06    -60.8809E+06    -256.392E+06    -44.3008E+06    -154.137E+03
             764     29.2526E-03     2.83105E-03     29.1153E-03     116.209E-03    -57.9386E-03    -58.2704E-03    -58.0050E-03     116.205E-03    -58.1995E-03     1.63780E-03     120.120E-03     205.175E+06    -54.7036E+06    -65.3108E+06    -264.970E+06    -65.3161E+06    -264.965E+06    -54.7036E+06     42.5261E+03
             765     29.1762E-03     1.88781E-03     29.1151E-03     116.349E-03    -58.0205E-03    -58.3289E-03    -58.1739E-03     116.348E-03    -58.1737E-03     1.01009E-03     118.392E-03     203.365E+06    -62.6516E+06    -69.7970E+06    -269.482E+06    -69.8046E+06    -269.475E+06    -62.6516E+06     386.551E+03
             766     29.1297E-03     943.472E-06     29.1144E-03     116.238E-03    -58.0225E-03    -58.2158E-03    -58.2077E-03     116.237E-03    -58.0297E-03     797.088E-06     117.258E-03     200.257E+06    -68.5526E+06    -73.4640E+06    -271.217E+06    -72.3407E+06    -271.211E+06    -69.6824E+06     737.744E+03
             767     32.7995E-03     16.0540E-03     28.6021E-03     137.797E-03    -58.1390E-03    -79.6581E-03    -56.3276E-03     114.467E-03    -58.1390E-03     127.417E-03     428.871E-03     138.173E+06     135.542E+06     123.501E+06    -8.24879E+06    -8.21580E+06     135.509E+06     123.501E+06     718.736E+03
             768     32.1702E-03     15.1070E-03     28.4025E-03     145.011E-03    -58.0659E-03    -86.9452E-03    -56.9484E-03     115.014E-03    -58.0659E-03     154.307E-03     426.145E-03     130.169E+06     124.604E+06     96.1957E+06    -16.4563E+06    -16.4334E+06     124.581E+06     96.1957E+06    -171.513E+03
             769     31.6061E-03     14.1618E-03     28.2557E-03     128.138E-03    -57.8784E-03    -70.2595E-03    -56.8252E-03     114.704E-03    -57.8784E-03     96.0194E-03     316.996E-03     120.296E+06     115.645E+06     53.5461E+06    -21.2744E+06    -21.2478E+06     115.619E+06     53.5461E+06     641.179E+03
             770     31.1317E-03     13.2196E-03     28.1856E-03     118.786E-03    -57.7072E-03    -61.0790E-03    -56.4770E-03     114.184E-03    -57.7072E-03     56.1631E-03     257.335E-03     116.127E+06     106.663E+06     18.6067E+06    -24.3717E+06    -24.3217E+06     106.613E+06     18.6067E+06     483.931E+03
             771     30.6943E-03     12.2735E-03     28.1336E-03     116.290E-03    -57.6035E-03    -58.6863E-03    -56.2692E-03     113.942E-03    -57.6730E-03     39.5088E-03     218.406E-03     81.3422E+06     62.5500E+06    -3.68303E+06    -28.1615E+06    -28.0836E+06     62.4721E+06    -3.68303E+06     787.748E+03
             772     30.2962E-03     11.3283E-03     28.0986E-03     115.525E-03    -57.6882E-03    -57.8369E-03    -56.6157E-03     114.387E-03    -57.7716E-03     27.5637E-03     193.556E-03     37.5023E+06     5.11361E+06    -22.3903E+06    -37.4136E+06    -31.0151E+06    -10.7833E+06    -12.8919E+06     21.3444E+03
             773     29.9324E-03     10.3847E-03     28.0733E-03     115.945E-03    -57.8601E-03    -58.0844E-03    -57.3707E-03     115.245E-03    -57.8740E-03     21.8964E-03     177.190E-03     50.2644E+06    -13.1793E+06    -33.4283E+06    -69.5761E+06    -33.6462E+06    -69.3582E+06    -13.1793E+06    -273.673E+03
             774     29.5973E-03     9.44031E-03     28.0514E-03     115.728E-03    -57.5778E-03    -58.1502E-03    -57.3389E-03     115.279E-03    -57.9406E-03     17.3282E-03     163.189E-03     89.4854E+06    -13.8053E+06    -36.1971E+06    -112.300E+06    -36.2070E+06     -112.29E+06    -13.8053E+06    -14.4659E+03
             775     29.2942E-03     8.49477E-03     28.0355E-03     115.547E-03    -57.4938E-03    -58.0536E-03    -57.2849E-03     115.302E-03    -58.0169E-03     12.9549E-03     151.768E-03     121.294E+06    -14.4456E+06    -39.1627E+06    -146.181E+06    -39.1820E+06    -146.161E+06    -14.4456E+06    -1.08759E+06
             776     29.0221E-03     7.55207E-03     28.0223E-03     115.830E-03    -57.6959E-03    -58.1343E-03    -57.5742E-03     115.672E-03    -58.0977E-03     10.3713E-03     143.427E-03     153.832E+06    -16.3882E+06    -44.3184E+06    -182.256E+06     -44.336E+06    -182.238E+06    -16.3882E+06    -909.465E+03
             777     28.7823E-03     6.60706E-03     28.0137E-03     115.886E-03    -57.7269E-03    -58.1591E-03    -57.6417E-03     115.792E-03    -58.1503E-03     8.00054E-03     136.399E-03     175.197E+06    -19.4572E+06    -48.6692E+06    -207.398E+06    -48.6784E+06    -207.389E+06    -19.4572E+06     512.704E+03
             778     28.5727E-03     5.66336E-03     28.0058E-03     116.027E-03    -57.8521E-03    -58.1744E-03    -57.8116E-03     115.977E-03    -58.1656E-03     5.71278E-03     130.664E-03     184.805E+06    -26.0194E+06    -52.3437E+06    -222.540E+06    -52.3550E+06    -222.528E+06    -26.0194E+06     1.11001E+06
             779     28.3954E-03     4.71907E-03     28.0006E-03     116.161E-03    -57.9285E-03    -58.2330E-03    -57.9814E-03     116.138E-03    -58.1565E-03     4.03091E-03     126.135E-03     196.815E+06    -36.0641E+06    -57.5338E+06    -242.714E+06    -57.5387E+06    -242.709E+06    -36.0641E+06     84.2166E+03
             780     28.2492E-03     3.77563E-03     27.9957E-03     116.128E-03    -57.9205E-03    -58.2074E-03    -57.9852E-03     116.116E-03    -58.1308E-03     2.72056E-03     122.567E-03     203.751E+06    -45.8958E+06    -61.7225E+06    -257.077E+06    -61.7257E+06    -257.073E+06    -45.8958E+06     102.493E+03
             781     28.1381E-03     2.83198E-03     27.9952E-03     115.950E-03    -57.8063E-03    -58.1439E-03    -57.8017E-03     115.946E-03    -58.1439E-03     1.78246E-03     119.802E-03     205.031E+06    -54.9730E+06    -66.0615E+06    -265.315E+06    -66.0668E+06    -265.309E+06    -54.9730E+06     950.670E+03
             782     28.0553E-03     1.88667E-03     27.9918E-03     116.140E-03    -57.8769E-03    -58.2630E-03    -57.9186E-03     116.138E-03    -58.2190E-03     1.04719E-03     118.167E-03     203.581E+06    -61.9469E+06    -69.2536E+06    -269.067E+06    -69.2606E+06    -269.060E+06    -61.9469E+06    -47.2097E+03
             783     28.0086E-03     944.090E-06     27.9927E-03     116.482E-03    -58.0032E-03    -58.4790E-03    -58.3602E-03     116.482E-03    -58.1216E-03     520.377E-06     117.486E-03     201.251E+06    -67.1891E+06    -72.3749E+06    -270.979E+06    -71.2498E+06    -270.974E+06    -68.3190E+06    -477.800E+03
             784     31.8303E-03     16.0551E-03     27.4846E-03     138.209E-03    -58.0992E-03    -80.1098E-03    -56.8831E-03     114.982E-03    -58.0992E-03     127.241E-03     428.757E-03     137.441E+06     136.208E+06      125.88E+06    -6.08515E+06    -6.02262E+06     136.146E+06      125.88E+06     1.66546E+06
             785     31.1835E-03     15.1099E-03     27.2782E-03     145.229E-03    -57.9854E-03    -87.2432E-03    -57.4557E-03     115.441E-03    -57.9854E-03     153.967E-03     425.890E-03     129.094E+06     125.845E+06     97.7394E+06    -13.8487E+06    -13.8093E+06     125.805E+06     97.7394E+06     524.792E+03
             786     30.6104E-03     14.1665E-03     27.1350E-03     127.350E-03    -57.7799E-03    -69.5705E-03    -56.2627E-03     114.043E-03    -57.7799E-03     95.5665E-03     316.355E-03     119.310E+06     114.448E+06     50.6856E+06    -21.2195E+06    -21.2127E+06     114.441E+06     50.6856E+06    -418.458E+03
             787     30.1190E-03     13.2174E-03     27.0639E-03     118.104E-03    -57.6483E-03    -60.4560E-03    -55.7394E-03     113.388E-03    -57.6483E-03     56.5959E-03     256.729E-03     115.486E+06     104.513E+06     14.8644E+06    -25.2945E+06    -25.2682E+06     104.486E+06     14.8644E+06     783.067E+03
             788     29.6685E-03     12.2745E-03     27.0103E-03     116.550E-03    -57.5668E-03    -58.9835E-03    -56.6076E-03     114.244E-03    -57.6363E-03     38.9692E-03     219.258E-03     80.1924E+06     62.3920E+06    -4.05336E+06    -26.5747E+06    -26.5486E+06     62.3659E+06    -4.05336E+06     905.818E+03
             789     29.2614E-03     11.3295E-03     26.9792E-03     115.436E-03    -57.4682E-03    -57.9681E-03    -56.6215E-03     114.350E-03    -57.7287E-03     27.2003E-03     193.544E-03     38.0838E+06     7.07418E+06    -20.4738E+06    -36.1048E+06    -28.3431E+06    -10.3661E+06    -10.7953E+06     1.36471E+06
             790     28.8803E-03     10.3838E-03     26.9490E-03     115.514E-03    -57.5492E-03    -57.9649E-03    -56.9467E-03     114.797E-03    -57.8505E-03     22.0839E-03     176.786E-03     51.8758E+06    -10.7587E+06    -31.8467E+06    -69.3192E+06    -32.3394E+06    -68.8265E+06    -10.7587E+06     1.15046E+06
             791     28.5373E-03     9.44062E-03     26.9305E-03     115.885E-03    -57.6870E-03    -58.1981E-03    -57.5317E-03     115.450E-03    -57.9178E-03     17.1913E-03     163.526E-03     89.0128E+06    -12.4235E+06    -35.6269E+06    -110.658E+06    -35.6422E+06    -110.643E+06    -12.4235E+06    -863.008E+03
             792     28.2226E-03     8.49723E-03     26.9131E-03     115.656E-03    -57.5158E-03    -58.1398E-03    -57.4384E-03     115.411E-03    -57.9730E-03     12.8784E-03     151.794E-03     123.819E+06    -13.7010E+06    -38.1193E+06    -147.878E+06    -38.1790E+06    -147.818E+06    -13.7010E+06     720.710E+03
             793     27.9412E-03     7.55099E-03     26.9016E-03     115.565E-03    -57.5114E-03    -58.0536E-03    -57.3682E-03     115.422E-03    -58.0536E-03     9.85340E-03     143.172E-03     155.392E+06    -15.2055E+06    -43.5439E+06    -182.778E+06    -43.6061E+06    -182.716E+06    -15.2055E+06     1.94996E+06
             794     27.6908E-03     6.60735E-03     26.8910E-03     115.894E-03    -57.7831E-03    -58.1113E-03    -57.7075E-03     115.810E-03    -58.1025E-03     7.54733E-03     136.404E-03     174.278E+06    -19.4524E+06    -49.9842E+06    -206.929E+06    -49.9986E+06    -206.915E+06    -19.4524E+06     422.291E+03
             795     27.4740E-03     5.66371E-03     26.8839E-03     116.041E-03    -57.9401E-03    -58.1013E-03    -57.8999E-03     115.992E-03    -58.0925E-03     5.76816E-03     130.609E-03     184.008E+06    -26.7577E+06    -53.7880E+06    -222.755E+06    -53.7974E+06    -222.745E+06    -26.7577E+06     405.371E+03
             796     27.2897E-03     4.72031E-03     26.8784E-03     115.907E-03    -57.8248E-03    -58.0824E-03    -57.7981E-03     115.881E-03    -58.0824E-03     4.18021E-03     125.861E-03     196.197E+06    -35.6375E+06    -57.5217E+06    -241.832E+06    -57.5305E+06    -241.823E+06    -35.6375E+06     837.156E+03
             797     27.1387E-03     3.77544E-03     26.8748E-03     115.841E-03    -57.7431E-03    -58.0981E-03    -57.7313E-03     115.829E-03    -58.0981E-03     2.81693E-03     122.268E-03     204.558E+06    -45.5543E+06    -62.7306E+06    -258.145E+06    -62.7362E+06    -258.140E+06    -45.5543E+06     438.353E+03
             798     27.0211E-03     2.83115E-03     26.8724E-03     116.104E-03    -57.8882E-03    -58.2159E-03    -58.0042E-03     116.099E-03    -58.0946E-03     1.79729E-03     119.883E-03     204.560E+06    -53.6620E+06    -66.2962E+06    -264.232E+06    -66.3047E+06    -264.223E+06    -53.6620E+06    -170.526E+03
             799     26.9376E-03     1.88844E-03     26.8713E-03     116.035E-03    -57.8403E-03    -58.1951E-03    -57.9603E-03     116.034E-03    -58.0737E-03     808.461E-06     118.005E-03     203.593E+06    -61.7207E+06    -68.3487E+06    -268.522E+06    -68.3602E+06    -268.510E+06    -61.7207E+06    -1.08861E+06
             800     26.8857E-03     942.831E-06     26.8692E-03     116.105E-03    -57.8029E-03    -58.3016E-03    -58.1384E-03     116.104E-03    -57.9658E-03     458.690E-06     117.159E-03     202.857E+06    -68.3052E+06    -72.4605E+06    -273.205E+06    -71.3248E+06    -273.197E+06    -69.4483E+06    -1.14594E+06
             801     30.8680E-03     16.0545E-03     26.3645E-03     138.947E-03    -58.0570E-03    -80.8900E-03    -57.5142E-03     115.571E-03    -58.0570E-03     127.134E-03     427.821E-03     137.538E+06     134.880E+06     124.347E+06    -7.59979E+06    -7.55962E+06     134.840E+06     124.347E+06     261.561E+03
             802     30.2036E-03     15.1112E-03     26.1516E-03     145.480E-03    -57.9340E-03    -87.5456E-03    -57.2920E-03     115.226E-03    -57.9340E-03     155.165E-03     425.133E-03     129.245E+06     125.763E+06     96.4432E+06    -14.3585E+06    -14.3204E+06     125.725E+06     96.4432E+06     1.55798E+06
             803     29.6233E-03     14.1644E-03     26.0175E-03     127.353E-03    -57.7466E-03    -69.6064E-03    -56.0844E-03     113.831E-03    -57.7466E-03     96.6283E-03     316.397E-03     119.105E+06     115.310E+06     50.7360E+06    -20.4614E+06    -20.4258E+06     115.274E+06     50.7360E+06     1.54408E+06
             804     29.1155E-03     13.2206E-03     25.9409E-03     118.411E-03    -57.6213E-03    -60.7896E-03    -55.8493E-03     113.471E-03    -57.6213E-03     57.8070E-03     256.188E-03     116.115E+06     104.822E+06     15.1555E+06    -25.7842E+06    -25.7492E+06     104.787E+06     15.1555E+06     542.186E+03
             805     28.6514E-03     12.2737E-03     25.8893E-03     116.394E-03    -57.6042E-03    -58.7901E-03    -56.4619E-03     114.066E-03    -57.6042E-03     39.3178E-03     219.035E-03     81.5070E+06     61.6038E+06    -5.76516E+06    -28.8831E+06     -28.815E+06     61.5357E+06    -5.76516E+06     530.250E+03
             806     28.2287E-03     11.3305E-03     25.8550E-03     115.642E-03    -57.5059E-03    -58.1366E-03    -56.8271E-03     114.524E-03    -57.6969E-03     27.5034E-03     193.810E-03     39.3995E+06     7.21281E+06    -22.3771E+06    -37.3829E+06    -30.4720E+06    -10.8545E+06    -11.2207E+06     1.94420E+06
             807     27.8409E-03     10.3858E-03     25.8312E-03     115.355E-03    -57.4363E-03    -57.9190E-03    -56.8070E-03     114.620E-03    -57.8127E-03     22.4630E-03     176.574E-03     50.9328E+06    -9.24914E+06    -30.4197E+06    -66.4184E+06    -30.9468E+06    -65.8913E+06    -9.24914E+06     1.02163E+06
             808     27.4775E-03     9.43962E-03     25.8051E-03     115.715E-03    -57.6467E-03    -58.0682E-03    -57.3502E-03     115.252E-03    -57.9014E-03     17.4142E-03     163.332E-03     92.8183E+06    -10.9505E+06    -34.3704E+06    -113.164E+06    -34.4890E+06    -113.045E+06    -10.9505E+06     1.26640E+06
             809     27.1561E-03     8.49613E-03     25.7928E-03     115.925E-03    -57.7011E-03    -58.2242E-03    -57.7527E-03     115.700E-03    -57.9468E-03     12.4266E-03     152.274E-03     126.046E+06    -13.2122E+06    -41.3445E+06    -150.855E+06    -41.5283E+06    -150.671E+06    -13.2122E+06     3.45606E+06
             810     26.8629E-03     7.55312E-03     25.7792E-03     115.721E-03    -57.6312E-03    -58.0898E-03    -57.5940E-03     115.573E-03    -57.9793E-03     10.0151E-03     143.189E-03     152.266E+06    -13.7837E+06    -45.1941E+06    -179.203E+06    -45.2840E+06    -179.113E+06    -13.7837E+06     2.59930E+06
             811     26.6034E-03     6.60870E-03     25.7695E-03     115.663E-03    -57.6482E-03    -58.0151E-03    -57.5637E-03     115.579E-03    -58.0151E-03     7.52195E-03     136.089E-03     174.975E+06    -17.0645E+06    -48.2606E+06    -205.498E+06    -48.2842E+06    -205.474E+06    -17.0645E+06     662.840E+03
             812     26.3774E-03     5.66387E-03     25.7621E-03     115.663E-03    -57.6377E-03    -58.0257E-03    -57.5898E-03     115.616E-03    -58.0257E-03     5.70366E-03     130.202E-03     185.236E+06    -26.1926E+06    -53.9798E+06    -223.740E+06    -53.9947E+06    -223.726E+06    -26.1926E+06     305.488E+03
             813     26.1850E-03     4.71949E-03     25.7562E-03     115.786E-03    -57.7253E-03    -58.0605E-03    -57.7204E-03     115.761E-03    -58.0408E-03     3.93634E-03     125.744E-03     196.445E+06    -34.5367E+06    -58.8890E+06    -242.001E+06    -58.8951E+06    -241.995E+06    -34.5367E+06     228.186E+03
             814     26.0294E-03     3.77583E-03     25.7541E-03     115.901E-03    -57.8271E-03    -58.0738E-03    -57.8572E-03     115.891E-03    -58.0339E-03     2.59498E-03     122.251E-03     204.417E+06    -43.2462E+06    -62.3535E+06    -256.526E+06    -62.3601E+06    -256.520E+06    -43.2462E+06    -235.466E+03
             815     25.9050E-03     2.83194E-03     25.7497E-03     115.918E-03    -57.7865E-03    -58.1317E-03    -57.9232E-03     115.913E-03    -57.9901E-03     1.65434E-03     119.635E-03     204.436E+06    -53.9184E+06    -65.6750E+06    -263.943E+06    -65.6873E+06    -263.931E+06    -53.9184E+06    -1.37628E+06
             816     25.8183E-03     1.88783E-03     25.7492E-03     115.924E-03    -57.7477E-03    -58.1761E-03    -58.0109E-03     115.923E-03    -57.9118E-03     866.941E-06     117.926E-03     203.710E+06    -63.5855E+06    -69.6918E+06    -270.271E+06    -69.7050E+06    -270.258E+06    -63.5855E+06    -1.00237E+06
             817     25.7663E-03     945.086E-06     25.7489E-03     115.681E-03    -57.6780E-03    -58.0033E-03    -57.9575E-03     115.680E-03    -57.7225E-03     887.908E-06     116.715E-03     203.023E+06    -69.9820E+06    -73.7844E+06    -274.872E+06    -72.3678E+06    -274.866E+06    -71.4047E+06    -228.549E+03
             818     29.9143E-03     16.0573E-03     25.2394E-03     138.670E-03    -58.0403E-03    -80.6298E-03    -57.1980E-03     115.238E-03    -58.0403E-03     126.065E-03     426.915E-03     137.780E+06     133.967E+06     123.124E+06    -8.89703E+06    -8.88532E+06     133.955E+06     123.124E+06    -225.863E+03
             819     29.2399E-03     15.1097E-03     25.0334E-03     145.176E-03    -57.9528E-03    -87.2231E-03    -56.6569E-03     114.610E-03    -57.9528E-03     155.441E-03     425.231E-03     129.898E+06     124.536E+06     96.2864E+06    -16.1569E+06    -16.1479E+06     124.527E+06     96.2864E+06     442.333E+03
             820     28.6412E-03     14.1642E-03     24.8937E-03     127.806E-03    -57.7798E-03    -70.0260E-03    -56.5595E-03     114.339E-03    -57.7798E-03     96.5701E-03     317.260E-03     119.821E+06     115.595E+06     53.2948E+06    -20.8601E+06    -20.8188E+06     115.554E+06     53.2948E+06     1.71133E+06
             821     28.1202E-03     13.2190E-03     24.8194E-03     118.765E-03    -57.6230E-03    -61.1423E-03    -56.2547E-03     113.878E-03    -57.6230E-03     57.6514E-03     256.890E-03     116.319E+06     106.291E+06     18.3548E+06    -25.1002E+06    -25.0288E+06     106.220E+06     18.3548E+06     1.98725E+06
             822     27.6430E-03     12.2751E-03     24.7680E-03     116.180E-03    -57.5953E-03    -58.5850E-03    -56.2479E-03     113.843E-03    -57.5953E-03     39.4250E-03     218.499E-03     80.7836E+06     61.4625E+06    -3.73267E+06    -28.8354E+06    -28.7189E+06     61.3460E+06    -3.73267E+06     1.06946E+06
             823     27.2039E-03     11.3286E-03     24.7328E-03     115.621E-03    -57.6832E-03    -57.9378E-03    -56.8258E-03     114.509E-03    -57.6832E-03     27.3136E-03     193.868E-03     37.0797E+06     6.15368E+06    -20.9749E+06    -36.0549E+06    -29.4500E+06    -10.4155E+06    -11.0106E+06    -295.531E+03
             824     26.8024E-03     10.3851E-03     24.7086E-03     115.724E-03    -57.7070E-03    -58.0168E-03    -57.2293E-03     115.011E-03    -57.7821E-03     22.1668E-03     176.824E-03     52.9148E+06    -9.72155E+06    -31.3801E+06    -69.1881E+06    -31.7803E+06    -68.7880E+06    -9.72155E+06     1.66576E+06
             825     26.4290E-03     9.44164E-03     24.6850E-03     115.561E-03    -57.5815E-03    -57.9791E-03    -57.2237E-03     115.095E-03    -57.8716E-03     17.4324E-03     162.911E-03     98.1623E+06    -8.83801E+06    -36.5951E+06    -117.806E+06    -37.2752E+06    -117.126E+06    -8.83801E+06     6.67393E+06
             826     26.0912E-03     8.49680E-03     24.6690E-03     115.728E-03    -57.6982E-03    -58.0298E-03    -57.5950E-03     115.508E-03    -57.9132E-03     12.2321E-03     151.990E-03     123.512E+06    -10.4342E+06    -41.9259E+06    -146.590E+06    -42.3450E+06    -146.171E+06    -10.4342E+06     4.57846E+06
             827     25.7887E-03     7.55277E-03     24.6579E-03     115.891E-03    -57.8136E-03    -58.0770E-03    -57.8276E-03     115.746E-03    -57.9186E-03     9.93640E-03     143.281E-03     149.201E+06    -14.0986E+06    -45.6403E+06    -176.473E+06    -45.6775E+06    -176.436E+06    -14.0986E+06     531.972E+03
             828     25.5184E-03     6.60847E-03     24.6478E-03     115.657E-03    -57.6841E-03    -57.9733E-03    -57.6403E-03     115.572E-03    -57.9315E-03     7.57756E-03     136.011E-03     175.203E+06    -17.2341E+06    -49.4954E+06    -206.318E+06    -49.5081E+06    -206.305E+06    -17.2341E+06     860.465E+03
             829     25.2835E-03     5.66492E-03     24.6407E-03     115.522E-03    -57.5900E-03    -57.9324E-03    -57.5477E-03     115.480E-03    -57.9324E-03     5.31122E-03     130.090E-03     185.298E+06    -23.9300E+06    -54.2023E+06    -222.479E+06    -54.2125E+06    -222.469E+06    -23.9300E+06     574.179E+03
             830     25.0835E-03     4.72031E-03     24.6354E-03     115.615E-03    -57.6676E-03    -57.9476E-03    -57.6682E-03     115.596E-03    -57.9278E-03     3.56949E-03     125.517E-03     196.261E+06    -33.7761E+06    -58.8948E+06    -241.357E+06    -58.9000E+06    -241.352E+06    -33.7761E+06    -785.735E+03
             831     24.9188E-03     3.77644E-03     24.6310E-03     115.734E-03    -57.8039E-03    -57.9297E-03    -57.8354E-03     115.725E-03    -57.8898E-03     2.34157E-03     122.048E-03     203.115E+06    -44.7327E+06    -63.1592E+06    -256.406E+06    -63.1732E+06    -256.392E+06    -44.7327E+06    -1.56658E+06
             832     24.7919E-03     2.83258E-03     24.6295E-03     115.512E-03    -57.6348E-03    -57.8772E-03    -57.6513E-03     115.508E-03    -57.8570E-03     1.56658E-03     119.267E-03     204.290E+06    -55.5954E+06    -67.0478E+06    -265.345E+06    -67.0610E+06    -265.332E+06    -55.5954E+06    -1.24306E+06
             833     24.6996E-03     1.88784E-03     24.6273E-03     115.543E-03    -57.5125E-03    -58.0301E-03    -57.6535E-03     115.541E-03    -57.8871E-03     1.11445E-03     117.571E-03     203.677E+06    -64.8633E+06    -71.1683E+06    -271.606E+06    -71.1745E+06    -271.599E+06    -64.8633E+06    -224.541E+03
             834     24.6448E-03     943.630E-06     24.6267E-03     115.799E-03    -57.6110E-03    -58.1878E-03    -58.0079E-03     115.797E-03    -57.7893E-03     1.01069E-03     116.858E-03     202.782E+06    -71.2957E+06    -74.0680E+06    -275.439E+06    -73.7916E+06    -275.436E+06    -71.5753E+06     57.7709E+03
             835     28.9760E-03     16.0552E-03     24.1213E-03     138.569E-03    -58.0899E-03    -80.4786E-03    -57.1111E-03     115.201E-03    -58.0899E-03     126.523E-03     428.073E-03     136.389E+06     133.982E+06     123.973E+06    -7.12134E+06    -7.11781E+06     133.979E+06     123.973E+06     246.279E+03
             836     28.2842E-03     15.1090E-03     23.9105E-03     145.866E-03    -57.9740E-03    -87.8917E-03    -57.6867E-03     115.661E-03    -57.9740E-03     155.153E-03     425.946E-03     129.447E+06     124.877E+06     97.4982E+06    -15.1339E+06    -15.1275E+06     124.870E+06     97.4982E+06     277.390E+03
             837     27.6719E-03     14.1649E-03     23.7716E-03     127.553E-03    -57.7628E-03    -69.7902E-03    -56.5895E-03     114.352E-03    -57.7628E-03     95.5766E-03     316.567E-03     120.227E+06     114.769E+06     53.2001E+06    -22.0157E+06    -22.0038E+06     114.757E+06     53.2001E+06     345.295E+03
             838     27.1357E-03     13.2204E-03     23.6974E-03     118.402E-03    -57.6015E-03    -60.8000E-03    -55.9565E-03     113.558E-03    -57.6015E-03     57.3934E-03     256.471E-03     115.933E+06     105.782E+06     16.5585E+06    -24.4068E+06    -24.3674E+06     105.742E+06     16.5585E+06     1.04440E+06
             839     26.6421E-03     12.2746E-03     23.6460E-03     116.529E-03    -57.5813E-03    -58.9482E-03    -56.5625E-03     114.144E-03    -57.5813E-03     39.8277E-03     218.342E-03     77.8309E+06     62.0103E+06    -2.46281E+06    -24.2133E+06    -24.1585E+06     61.9555E+06    -2.46281E+06     657.574E+03
             840     26.1900E-03     11.3311E-03     23.6119E-03     115.887E-03    -57.6626E-03    -58.2242E-03    -57.1228E-03     114.785E-03    -57.6626E-03     27.2239E-03     193.779E-03     37.7950E+06     7.32621E+06    -18.9385E+06    -35.8999E+06    -27.6277E+06    -12.1664E+06    -7.71816E+06     1.20282E+06
             841     25.7709E-03     10.3860E-03     23.5854E-03     115.742E-03    -57.7299E-03    -58.0118E-03    -57.3276E-03     115.084E-03    -57.7567E-03     21.2747E-03     176.857E-03     62.4461E+06    -5.70451E+06    -32.4228E+06    -76.5237E+06    -33.7691E+06    -75.1774E+06    -5.70451E+06     5.58421E+06
             842     25.3849E-03     9.44153E-03     23.5637E-03     115.588E-03    -57.6327E-03    -57.9556E-03    -57.3515E-03     115.157E-03    -57.8053E-03     17.0298E-03     162.787E-03     99.5332E+06    -5.75394E+06    -34.7592E+06    -116.413E+06    -35.5970E+06    -115.576E+06    -5.75394E+06     5.80199E+06
             843     25.0337E-03     8.49709E-03     23.5475E-03     115.529E-03    -57.6451E-03    -57.8838E-03    -57.4742E-03     115.309E-03    -57.8350E-03     12.1334E-03     151.481E-03     124.249E+06    -5.77982E+06    -34.8856E+06    -141.934E+06    -35.3529E+06    -141.467E+06    -5.77982E+06     3.21992E+06
             844     24.7175E-03     7.55318E-03     23.5352E-03     115.708E-03    -57.7953E-03    -57.9128E-03    -57.7251E-03     115.590E-03    -57.8649E-03     8.97010E-03     143.183E-03     154.492E+06    -7.74787E+06    -40.9792E+06    -176.139E+06    -41.1515E+06    -175.966E+06    -7.74787E+06     2.92237E+06
             845     24.4375E-03     6.60992E-03     23.5265E-03     115.667E-03    -57.7654E-03    -57.9017E-03    -57.7424E-03     115.594E-03    -57.8518E-03     7.06685E-03     135.982E-03     176.136E+06    -14.0945E+06    -47.9391E+06    -204.675E+06    -47.9798E+06    -204.635E+06    -14.0945E+06     738.284E+03
             846     24.1917E-03     5.66511E-03     23.5190E-03     115.530E-03    -57.7070E-03    -57.8225E-03    -57.6741E-03     115.489E-03    -57.8144E-03     5.22315E-03     129.972E-03     186.953E+06    -21.5909E+06    -51.7451E+06    -221.764E+06    -51.7561E+06    -221.753E+06    -21.5909E+06    -653.911E+03
             847     23.9834E-03     4.72157E-03     23.5140E-03     115.417E-03    -57.6391E-03    -57.7776E-03    -57.6188E-03     115.396E-03    -57.7776E-03     3.71503E-03     125.286E-03     197.791E+06    -31.9958E+06    -56.6259E+06    -240.915E+06    -56.6316E+06    -240.910E+06    -31.9958E+06    -165.659E+03
             848     23.8114E-03     3.77691E-03     23.5099E-03     115.312E-03    -57.5712E-03    -57.7407E-03    -57.5622E-03     115.303E-03    -57.7407E-03     2.28339E-03     121.668E-03     204.315E+06    -44.9946E+06    -62.9060E+06    -257.653E+06    -62.9185E+06    -257.640E+06    -44.9946E+06    -665.265E+03
             849     23.6782E-03     2.83244E-03     23.5082E-03     115.266E-03    -57.5490E-03    -57.7166E-03    -57.5467E-03     115.263E-03    -57.7166E-03     1.22528E-03     119.066E-03     204.310E+06    -56.4504E+06    -68.4586E+06    -266.489E+06    -68.4708E+06    -266.477E+06    -56.4504E+06    -966.572E+03
             850     23.5825E-03     1.88848E-03     23.5068E-03     115.248E-03    -57.4742E-03    -57.7742E-03    -57.5044E-03     115.247E-03    -57.7426E-03     896.276E-06     117.318E-03     203.825E+06    -64.7638E+06    -71.6970E+06    -271.951E+06    -71.7033E+06    -271.944E+06    -64.7638E+06    -711.419E+03
             851     23.5242E-03     943.549E-06     23.5053E-03     115.500E-03    -57.4917E-03    -58.0085E-03    -57.7647E-03     115.500E-03    -57.7351E-03     483.590E-06     116.663E-03     202.669E+06    -72.4167E+06    -74.9180E+06    -276.315E+06    -74.9200E+06    -276.313E+06    -72.4167E+06    -381.157E+03
             852     28.0409E-03     16.0506E-03     22.9928E-03     138.301E-03    -58.1384E-03    -80.1626E-03    -57.4117E-03     115.550E-03    -58.1384E-03     126.911E-03     429.168E-03     138.116E+06     133.954E+06     123.131E+06    -9.23402E+06    -9.23111E+06     133.952E+06     123.131E+06     171.395E+03
             853     27.3431E-03     15.1114E-03     22.7880E-03     145.577E-03    -57.9853E-03    -87.5920E-03    -58.3135E-03     116.299E-03    -57.9853E-03     153.371E-03     425.676E-03     130.852E+06     124.893E+06     96.5573E+06    -16.9729E+06    -16.9658E+06     124.886E+06     96.5573E+06    -90.7105E+03
             854     26.7149E-03     14.1661E-03     22.6497E-03     127.841E-03    -57.7569E-03    -70.0845E-03    -56.5399E-03     114.297E-03    -57.7569E-03     96.6765E-03     315.907E-03     120.017E+06     114.746E+06     53.4233E+06    -21.8063E+06    -21.7940E+06     114.733E+06     53.4233E+06    -659.935E+03
             855     26.1624E-03     13.2192E-03     22.5771E-03     118.673E-03    -57.5848E-03    -61.0880E-03    -56.2451E-03     113.830E-03    -57.5848E-03     57.4483E-03     256.307E-03     115.881E+06     105.400E+06     15.7928E+06    -24.5092E+06    -24.4980E+06     105.389E+06     15.7928E+06    -1.14922E+06
             856     25.6507E-03     12.2743E-03     22.5234E-03     116.672E-03    -57.5431E-03    -59.1293E-03    -56.7836E-03     114.327E-03    -57.5431E-03     39.4847E-03     218.306E-03     79.7429E+06     60.3713E+06    -4.71581E+06    -28.0033E+06    -27.9412E+06     60.3093E+06    -4.71581E+06     554.852E+03
             857     25.1816E-03     11.3302E-03     22.4886E-03     116.115E-03    -57.6180E-03    -58.4966E-03    -57.4259E-03     115.044E-03    -57.6180E-03     26.8745E-03     193.715E-03     44.7242E+06     8.18040E+06    -20.2355E+06    -43.2578E+06    -31.6746E+06    -16.6123E+06    -7.02605E+06     4.75919E+06
             858     24.7495E-03     10.3872E-03     22.4643E-03     115.841E-03    -57.6431E-03    -58.1978E-03    -57.5396E-03     115.210E-03    -57.6699E-03     20.8527E-03     176.870E-03     63.6369E+06    -4.30657E+06    -30.4630E+06    -76.3181E+06    -31.9527E+06    -74.8284E+06    -4.30657E+06     4.95401E+06
             859     24.3474E-03     9.44276E-03     22.4417E-03     115.579E-03    -57.6511E-03    -57.9277E-03    -57.5036E-03     115.182E-03    -57.6779E-03     16.3179E-03     162.657E-03     96.1020E+06    -5.56852E+06    -32.2386E+06    -112.081E+06    -32.7594E+06    -111.560E+06    -5.56852E+06     2.57283E+06
             860     23.9822E-03     8.49913E-03     22.4257E-03     115.315E-03    -57.5629E-03    -57.7522E-03    -57.4152E-03     115.115E-03    -57.7002E-03     11.6127E-03     151.064E-03     125.091E+06    -6.62056E+06    -36.4941E+06    -143.879E+06    -36.8884E+06    -143.485E+06    -6.62056E+06     3.33007E+06
             861     23.6527E-03     7.55465E-03     22.4138E-03     115.310E-03    -57.5667E-03    -57.7436E-03    -57.4515E-03     115.195E-03    -57.7436E-03     8.85705E-03     142.640E-03     155.964E+06    -4.78521E+06    -38.4196E+06    -174.805E+06    -38.5845E+06    -174.640E+06    -4.78521E+06     3.31732E+06
             862     23.3593E-03     6.60968E-03     22.4047E-03     115.487E-03    -57.6961E-03    -57.7911E-03    -57.6847E-03     115.420E-03    -57.7356E-03     6.67884E-03     135.641E-03     177.660E+06    -9.53466E+06    -41.6512E+06    -201.021E+06    -41.7396E+06    -200.932E+06    -9.53466E+06     2.04147E+06
             863     23.1035E-03     5.66640E-03     22.3978E-03     115.368E-03    -57.6404E-03    -57.7274E-03    -57.6618E-03     115.334E-03    -57.6719E-03     4.75794E-03     129.644E-03     187.123E+06    -21.9428E+06    -50.2638E+06    -221.605E+06    -50.3231E+06    -221.545E+06    -21.9428E+06     709.317E+03
             864     22.8852E-03     4.72156E-03     22.3928E-03     115.146E-03    -57.5172E-03    -57.6289E-03    -57.5004E-03     115.129E-03    -57.6289E-03     3.30338E-03     124.942E-03     198.597E+06    -32.0172E+06    -57.4623E+06    -242.091E+06    -57.4647E+06    -242.088E+06    -32.0172E+06     358.703E+03
             865     22.7057E-03     3.77764E-03     22.3893E-03     115.045E-03    -57.4504E-03    -57.5947E-03    -57.4431E-03     115.038E-03    -57.5947E-03     2.09056E-03     121.358E-03     205.869E+06    -41.9873E+06    -62.5548E+06    -257.343E+06    -62.5598E+06    -257.338E+06    -41.9873E+06     774.436E+03
             866     22.5658E-03     2.83332E-03     22.3872E-03     115.110E-03    -57.4336E-03    -57.6766E-03    -57.5969E-03     115.108E-03    -57.5111E-03     975.702E-06     118.886E-03     204.332E+06    -55.1936E+06    -67.9360E+06    -265.547E+06    -67.9439E+06    -265.539E+06    -55.1936E+06    -48.7650E+03
             867     22.4655E-03     1.88872E-03     22.3860E-03     114.957E-03    -57.3597E-03    -57.5969E-03    -57.5831E-03     114.956E-03    -57.3731E-03     373.641E-06     117.071E-03     203.438E+06    -66.4199E+06    -73.3570E+06    -273.235E+06    -73.3637E+06    -273.229E+06    -66.4199E+06    -315.239E+03
             868     22.4042E-03     945.297E-06     22.3842E-03     114.536E-03    -57.0800E-03    -57.4562E-03    -57.3903E-03     114.535E-03    -57.1451E-03     512.911E-06     115.768E-03     202.404E+06    -73.8529E+06    -77.5516E+06    -278.070E+06    -77.5585E+06    -278.064E+06    -73.8529E+06    -265.495E+03
             869     27.1249E-03     16.0554E-03     21.8629E-03     137.795E-03    -58.1018E-03    -79.6935E-03    -56.8226E-03     114.924E-03    -58.1018E-03     127.571E-03     429.106E-03     137.585E+06     133.563E+06     124.344E+06    -8.37823E+06    -8.35656E+06     133.541E+06     124.344E+06     1.20788E+06
             870     26.4158E-03     15.1091E-03     21.6682E-03     144.070E-03    -57.9871E-03    -86.0827E-03    -57.1811E-03     115.168E-03    -57.9871E-03     151.346E-03     425.698E-03     130.182E+06     125.177E+06     96.6718E+06    -15.8727E+06    -15.8580E+06     125.162E+06     96.6718E+06    -849.704E+03
             871     25.7676E-03     14.1624E-03     21.5266E-03     128.295E-03    -57.7715E-03    -70.5235E-03    -57.0113E-03     114.783E-03    -57.7715E-03     96.6918E-03     316.685E-03     119.632E+06     114.940E+06     52.7691E+06    -21.3723E+06    -21.3534E+06     114.922E+06     52.7691E+06    -1.43508E+06
             872     25.2006E-03     13.2210E-03     21.4540E-03     119.426E-03    -57.5581E-03    -61.8681E-03    -57.1597E-03     114.718E-03    -57.5581E-03     56.8157E-03     257.124E-03     115.859E+06     104.579E+06     16.0654E+06    -25.8548E+06    -25.8339E+06     104.558E+06     16.0654E+06    -220.996E+03
             873     24.6732E-03     12.2770E-03     21.4020E-03     116.870E-03    -57.4603E-03    -59.4093E-03    -57.1683E-03     114.629E-03    -57.4603E-03     38.7835E-03     218.326E-03     78.3653E+06     56.8003E+06    -6.04324E+06    -30.5763E+06    -30.3946E+06     56.6186E+06    -6.04324E+06     2.14739E+06
             874     24.1853E-03     11.3322E-03     21.3661E-03     115.837E-03    -57.5018E-03    -58.3354E-03    -57.3036E-03     114.805E-03    -57.5018E-03     26.2857E-03     193.290E-03     40.2654E+06     4.20146E+06    -20.5651E+06    -42.1227E+06    -30.6219E+06    -18.1678E+06    -9.69659E+06     2.81802E+06
             875     23.7354E-03     10.3878E-03     21.3416E-03     115.871E-03    -57.5349E-03    -58.3362E-03    -57.7481E-03     115.283E-03    -57.5349E-03     20.1590E-03     176.613E-03     59.0598E+06    -6.86318E+06    -29.8637E+06    -73.6019E+06    -30.8489E+06    -72.6168E+06    -6.86318E+06     2.46940E+06
             876     23.3182E-03     9.44469E-03     21.3199E-03     115.531E-03    -57.5223E-03    -58.0087E-03    -57.6321E-03     115.154E-03    -57.5223E-03     15.8899E-03     162.138E-03     93.5759E+06    -8.15660E+06    -34.5559E+06    -112.039E+06    -35.1331E+06    -111.462E+06    -8.15660E+06     4.12156E+06
             877     22.9374E-03     8.49987E-03     21.3044E-03     115.084E-03    -57.4207E-03    -57.6633E-03    -57.3842E-03     114.898E-03    -57.5138E-03     11.1600E-03     150.394E-03     120.944E+06    -9.81546E+06    -36.8833E+06    -141.887E+06    -37.1072E+06    -141.663E+06    -9.81546E+06     2.43162E+06
             878     22.5938E-03     7.55518E-03     21.2931E-03     115.068E-03    -57.4227E-03    -57.6451E-03    -57.4359E-03     114.966E-03    -57.5299E-03     8.27756E-03     141.998E-03     152.022E+06    -10.4465E+06    -39.1591E+06    -174.754E+06    -39.1926E+06    -174.721E+06    -10.4465E+06     1.22508E+06
             879     22.2860E-03     6.61170E-03     21.2827E-03     115.083E-03    -57.4721E-03    -57.6104E-03    -57.5043E-03     115.031E-03    -57.5267E-03     5.75914E-03     135.035E-03     175.192E+06    -12.9046E+06    -44.8635E+06    -201.847E+06    -44.9740E+06    -201.737E+06    -12.9046E+06     3.84650E+06
             880     22.0188E-03     5.66693E-03     21.2771E-03     114.972E-03    -57.4189E-03    -57.5533E-03    -57.4792E-03     114.950E-03    -57.4707E-03     3.88202E-03     129.126E-03     185.397E+06    -21.5407E+06    -50.9927E+06    -219.846E+06    -51.1052E+06    -219.734E+06    -21.5407E+06     3.77842E+06
             881     21.7898E-03     4.72316E-03     21.2718E-03     114.830E-03    -57.3540E-03    -57.4761E-03    -57.4060E-03     114.819E-03    -57.4135E-03     2.52528E-03     124.445E-03     198.031E+06    -31.6470E+06    -57.5629E+06    -241.352E+06    -57.5982E+06    -241.317E+06    -31.6470E+06     1.41719E+06
             882     21.6022E-03     3.77813E-03     21.2692E-03     114.717E-03    -57.2865E-03    -57.4301E-03    -57.3660E-03     114.713E-03    -57.3471E-03     1.43987E-03     120.829E-03     205.184E+06    -41.3630E+06    -63.6652E+06    -256.772E+06    -63.6687E+06    -256.769E+06    -41.3630E+06     654.116E+03
             883     21.4541E-03     2.83368E-03     21.2661E-03     114.608E-03    -57.1539E-03    -57.4542E-03    -57.3731E-03     114.606E-03    -57.2334E-03     687.606E-06     118.277E-03     204.606E+06    -53.8810E+06    -68.8164E+06    -265.494E+06    -68.8208E+06    -265.490E+06    -53.8810E+06     836.932E+03
             884     21.3492E-03     1.89040E-03     21.2654E-03     114.333E-03    -57.0229E-03    -57.3103E-03    -57.2429E-03     114.333E-03    -57.0899E-03     315.511E-06     116.431E-03     203.729E+06    -66.4428E+06    -73.1550E+06    -273.403E+06    -73.0600E+06    -273.392E+06    -66.5488E+06     1.22275E+06
             885     21.2867E-03     944.481E-06     21.2657E-03     114.003E-03    -56.8338E-03    -57.1691E-03    -57.1673E-03     114.001E-03    -56.8338E-03     963.150E-06     115.151E-03     202.390E+06    -74.3420E+06    -77.1935E+06    -278.136E+06    -76.3793E+06    -278.110E+06    -75.1822E+06    -330.201E+03
             886     26.2344E-03     16.0562E-03     20.7471E-03     137.467E-03    -58.0114E-03    -79.4552E-03    -56.3827E-03     114.394E-03    -58.0114E-03     126.451E-03     428.389E-03     135.019E+06     132.691E+06     124.458E+06    -6.16857E+06    -6.14589E+06     132.668E+06     124.458E+06     1.32594E+06
             887     25.5011E-03     15.1089E-03     20.5432E-03     143.644E-03    -57.9223E-03    -85.7221E-03    -56.6048E-03     114.527E-03    -57.9223E-03     151.096E-03     425.713E-03     129.403E+06     127.170E+06     96.9176E+06    -13.6132E+06    -13.5915E+06     127.148E+06     96.9176E+06     226.578E+03
             888     24.8418E-03     14.1668E-03     20.4063E-03     128.245E-03    -57.7008E-03    -70.5446E-03    -57.5636E-03     115.264E-03    -57.7008E-03     94.9985E-03     316.992E-03     119.734E+06     115.677E+06     52.3023E+06    -20.9459E+06    -20.9253E+06     115.656E+06     52.3023E+06    -301.370E+03
             889     24.2492E-03     13.2199E-03     20.3288E-03     119.290E-03    -57.4512E-03    -61.8390E-03    -57.3392E-03     114.790E-03    -57.4512E-03     55.4393E-03     256.287E-03     114.439E+06     101.839E+06     13.8831E+06    -26.7501E+06    -26.7344E+06     101.823E+06     13.8831E+06     675.823E+03
             890     23.7066E-03     12.2774E-03     20.2797E-03     116.908E-03    -57.3191E-03    -59.5886E-03    -57.5081E-03     114.827E-03    -57.3191E-03     37.3426E-03     217.699E-03     76.4639E+06     56.0816E+06    -7.78306E+06    -28.4916E+06    -28.3622E+06     55.9522E+06    -7.78306E+06     2.10342E+06
             891     23.2010E-03     11.3335E-03     20.2445E-03     115.728E-03    -57.3263E-03    -58.4014E-03    -57.4221E-03     114.748E-03    -57.3263E-03     25.6657E-03     192.408E-03     38.6149E+06     3.23710E+06    -22.8571E+06    -40.7632E+06    -30.2880E+06    -17.6639E+06    -12.4313E+06     1.84268E+06
             892     22.7323E-03     10.3898E-03     20.2191E-03     115.617E-03    -57.3452E-03    -58.2721E-03    -57.7255E-03     115.071E-03    -57.3452E-03     19.3277E-03     175.532E-03     57.8964E+06    -10.3162E+06    -32.6280E+06    -75.6276E+06    -33.5026E+06    -74.7530E+06    -10.3162E+06     2.82631E+06
             893     22.2976E-03     9.44551E-03     20.1981E-03     115.498E-03    -57.2933E-03    -58.2045E-03    -57.9046E-03     115.198E-03    -57.2933E-03     13.9846E-03     161.393E-03     90.7452E+06    -10.6955E+06    -32.7320E+06    -110.309E+06    -33.0594E+06    -109.982E+06    -10.6955E+06     2.10822E+06
             894     21.9010E-03     8.50186E-03     20.1835E-03     114.993E-03    -57.2396E-03    -57.7531E-03    -57.6219E-03     114.861E-03    -57.2396E-03     9.29225E-03     149.755E-03     120.013E+06    -11.3231E+06    -34.4403E+06    -141.183E+06    -34.6279E+06    -140.996E+06    -11.3231E+06     2.16405E+06
             895     21.5409E-03     7.55831E-03     20.1714E-03     114.708E-03    -57.2185E-03    -57.4900E-03    -57.4220E-03     114.640E-03    -57.2185E-03     6.71791E-03     141.035E-03     151.706E+06    -12.3494E+06    -41.7288E+06    -176.569E+06    -41.9901E+06    -176.307E+06    -12.3494E+06     4.69460E+06
             896     21.2196E-03     6.61327E-03     20.1627E-03     114.434E-03    -57.1485E-03    -57.2851E-03    -57.2130E-03     114.402E-03    -57.1890E-03     4.42713E-03     133.900E-03     173.196E+06    -15.2752E+06    -48.0571E+06    -202.484E+06    -48.1761E+06    -202.365E+06    -15.2752E+06     4.01486E+06
             897     20.9381E-03     5.66898E-03     20.1560E-03     114.239E-03    -57.0539E-03    -57.1852E-03    -57.0893E-03     114.227E-03    -57.1379E-03     2.70406E-03     128.068E-03     183.756E+06    -21.9021E+06    -51.8074E+06    -218.726E+06    -51.9073E+06    -218.626E+06    -21.9021E+06     3.91931E+06
             898     20.6980E-03     4.72402E-03     20.1517E-03     114.298E-03    -57.0231E-03    -57.2748E-03    -57.2264E-03     114.293E-03    -57.0665E-03     1.65319E-03     123.701E-03     195.128E+06    -31.2482E+06    -56.8379E+06    -237.890E+06    -56.9150E+06    -237.813E+06    -31.2482E+06     3.15895E+06
             899     20.5003E-03     3.78013E-03     20.1487E-03     114.138E-03    -56.9498E-03    -57.1881E-03    -57.1773E-03     114.137E-03    -56.9595E-03     619.814E-06     120.033E-03     204.466E+06    -41.8804E+06    -63.1420E+06    -256.129E+06    -63.1546E+06    -256.117E+06    -41.8804E+06     994.780E+03
             900     20.3451E-03     2.83562E-03     20.1465E-03     113.608E-03    -56.6784E-03    -56.9293E-03    -56.7337E-03     113.608E-03    -56.8739E-03     53.7790E-06     117.126E-03     205.626E+06    -54.0056E+06    -68.5176E+06    -266.465E+06    -68.5194E+06    -266.464E+06    -54.0056E+06     509.070E+03
             901     20.2348E-03     1.88887E-03     20.1464E-03     113.550E-03    -56.6502E-03    -56.9001E-03    -56.6777E-03     113.550E-03    -56.8720E-03     5.71724E-06     115.541E-03     205.360E+06    -64.2641E+06    -72.1021E+06    -273.387E+06    -72.0064E+06    -273.377E+06    -64.3701E+06     822.460E+03
             902     20.1674E-03     945.315E-06     20.1453E-03     113.729E-03    -56.7401E-03    -56.9885E-03    -56.9512E-03     113.727E-03    -56.7762E-03     427.574E-06     114.744E-03     202.795E+06    -71.3815E+06    -75.2977E+06    -276.084E+06    -73.8749E+06    -276.019E+06    -72.8698E+06     1.26558E+06
             903     25.3610E-03     16.0588E-03     19.6289E-03     138.273E-03    -57.9944E-03    -80.2788E-03    -57.0942E-03     115.089E-03    -57.9944E-03     126.692E-03     427.808E-03     135.812E+06     132.828E+06     124.945E+06    -6.64018E+06    -6.57877E+06     132.767E+06     124.945E+06     192.897E+03
             904     24.6093E-03     15.1120E-03     19.4228E-03     145.466E-03    -57.8657E-03    -87.6003E-03    -57.8162E-03     115.682E-03    -57.8657E-03     154.038E-03     425.021E-03     130.601E+06     129.843E+06     100.652E+06    -11.9991E+06    -11.9570E+06     129.801E+06     100.652E+06     2.29636E+06
             905     23.9250E-03     14.1662E-03     19.2802E-03     128.849E-03    -57.5850E-03    -71.2644E-03    -58.1726E-03     115.758E-03    -57.5850E-03     95.4773E-03     316.209E-03     119.161E+06     115.972E+06     54.3792E+06    -19.6850E+06    -19.6123E+06     115.899E+06     54.3792E+06     2.35589E+06
             906     23.3216E-03     13.2257E-03     19.2088E-03     119.404E-03    -57.2725E-03    -62.1314E-03    -57.7708E-03     115.043E-03    -57.2725E-03     54.6363E-03     254.813E-03     113.557E+06     101.059E+06     11.9425E+06    -25.5990E+06    -25.5439E+06     101.003E+06     11.9425E+06     1.42836E+06
             907     22.7533E-03     12.2799E-03     19.1550E-03     116.696E-03    -57.1009E-03    -59.5953E-03    -57.6795E-03     114.780E-03    -57.1009E-03     35.6888E-03     216.297E-03     76.2256E+06     54.8204E+06    -10.9169E+06    -28.5058E+06    -28.4167E+06     54.7313E+06    -10.9169E+06     1.32828E+06
             908     22.2315E-03     11.3369E-03     19.1237E-03     115.978E-03    -57.0787E-03    -58.8991E-03    -58.0660E-03     115.145E-03    -57.0787E-03     23.7195E-03     191.345E-03     41.5064E+06     5.16021E+06    -22.9054E+06    -42.1320E+06    -30.2679E+06    -18.5976E+06    -11.0117E+06     3.48805E+06
             909     21.7413E-03     10.3921E-03     19.0968E-03     115.669E-03    -57.0099E-03    -58.6591E-03    -58.2356E-03     115.245E-03    -57.0099E-03     16.7860E-03     174.027E-03     56.4339E+06    -9.55984E+06    -31.3872E+06    -73.1385E+06    -31.9596E+06    -72.5661E+06    -9.55984E+06     1.55070E+06
             910     21.2882E-03     9.44975E-03     19.0759E-03     115.096E-03    -56.8913E-03    -58.2044E-03    -58.0163E-03     114.908E-03    -56.8913E-03     10.9171E-03     159.826E-03     90.5425E+06    -11.8869E+06    -33.8609E+06    -111.321E+06    -34.0800E+06    -111.102E+06    -11.8869E+06     815.384E+03
             911     20.8741E-03     8.50608E-03     19.0624E-03     114.541E-03    -56.7900E-03    -57.7513E-03    -57.6807E-03     114.471E-03    -56.7900E-03     6.70094E-03     148.315E-03     122.015E+06    -12.7455E+06    -38.6859E+06    -145.602E+06    -39.0884E+06    -145.200E+06    -12.7455E+06     5.15781E+06
             912     20.4968E-03     7.56108E-03     19.0512E-03     113.949E-03    -56.7122E-03    -57.2363E-03    -57.2037E-03     113.916E-03    -56.7122E-03     4.27628E-03     139.377E-03     149.897E+06    -12.6804E+06    -42.5020E+06    -175.225E+06    -42.8053E+06    -174.922E+06    -12.6804E+06     5.86332E+06
             913     20.1594E-03     6.61704E-03     19.0425E-03     113.501E-03    -56.6477E-03    -56.8537E-03    -56.8423E-03     113.490E-03    -56.6477E-03     2.28027E-03     132.171E-03     172.459E+06    -15.9478E+06    -46.1953E+06    -201.496E+06    -46.3486E+06    -201.342E+06    -15.9478E+06     4.51372E+06
             914     19.8638E-03     5.67181E-03     19.0368E-03     113.307E-03    -56.5219E-03    -56.7852E-03    -56.7386E-03     113.304E-03    -56.5653E-03     788.314E-06     126.546E-03     182.082E+06    -23.6711E+06    -51.7232E+06    -218.146E+06    -51.8375E+06    -218.032E+06    -23.6711E+06     3.93038E+06
             915     19.6104E-03     4.72674E-03     19.0323E-03     113.096E-03    -56.3201E-03    -56.7755E-03    -56.6118E-03     113.093E-03    -56.4811E-03    -136.843E-06     122.063E-03     191.951E+06    -32.1105E+06    -56.7045E+06    -235.142E+06    -56.7759E+06    -235.071E+06    -32.1105E+06     3.47846E+06
             916     19.4006E-03     3.78178E-03     19.0285E-03     112.809E-03    -56.2565E-03    -56.5525E-03    -56.3993E-03     112.806E-03    -56.4069E-03    -738.109E-06     118.496E-03     202.458E+06    -42.7950E+06    -62.0466E+06    -254.173E+06    -62.0778E+06    -254.141E+06    -42.7950E+06     1.90579E+06
             917     19.2396E-03     2.83598E-03     19.0294E-03     112.674E-03    -56.1824E-03    -56.4916E-03    -56.3383E-03     112.672E-03    -56.3338E-03    -910.437E-06     116.045E-03     206.029E+06    -54.5970E+06    -67.2309E+06    -266.618E+06    -67.2329E+06    -266.616E+06    -54.5970E+06     544.753E+03
             918     19.1207E-03     1.89154E-03     19.0269E-03     112.538E-03    -56.1123E-03    -56.4254E-03    -56.2688E-03     112.536E-03    -56.2671E-03    -990.189E-06     114.392E-03     205.498E+06    -64.0292E+06    -71.9139E+06    -273.349E+06    -71.9156E+06    -273.348E+06    -64.0292E+06     112.447E+03
             919     19.0508E-03     944.784E-06     19.0273E-03     112.419E-03    -56.0073E-03    -56.4119E-03    -56.3747E-03     112.418E-03    -56.0433E-03    -475.215E-06     113.409E-03     202.987E+06    -70.0677E+06    -75.7653E+06    -275.832E+06    -75.1637E+06    -275.786E+06    -70.7158E+06     1.10203E+06
             920     24.4956E-03     16.0519E-03     18.5033E-03     138.508E-03    -58.0152E-03    -80.4930E-03    -57.4914E-03     115.507E-03    -58.0152E-03     125.440E-03     426.909E-03     137.394E+06     132.000E+06     124.127E+06    -9.07633E+06    -8.98162E+06     131.906E+06     124.127E+06    -1.30604E+06
             921     23.7319E-03     15.1114E-03     18.2988E-03     146.902E-03    -57.8280E-03    -89.0736E-03    -59.2416E-03     117.070E-03    -57.8280E-03     155.063E-03     425.627E-03     131.645E+06     126.731E+06     98.6734E+06    -15.8531E+06    -15.7844E+06     126.663E+06     98.6734E+06     530.989E+03
             922     23.0322E-03     14.1694E-03     18.1579E-03     129.660E-03    -57.4668E-03    -72.1936E-03    -59.3863E-03     116.853E-03    -57.4668E-03     94.8528E-03     314.479E-03     118.937E+06     114.634E+06     55.5056E+06    -20.7857E+06    -20.7005E+06     114.549E+06     55.5056E+06     2.97388E+06
             923     22.4023E-03     13.2248E-03     18.0822E-03     119.837E-03    -57.0738E-03    -62.7629E-03    -58.6403E-03     115.714E-03    -57.0738E-03     53.1520E-03     252.999E-03     114.079E+06     102.854E+06     15.1567E+06    -24.7012E+06    -24.5668E+06     102.719E+06     15.1567E+06     3.48766E+06
             924     21.8214E-03     12.2841E-03     18.0353E-03     117.520E-03    -56.7927E-03    -60.7273E-03    -58.9954E-03     115.788E-03    -56.7927E-03     33.9554E-03     215.013E-03     74.0267E+06     53.1120E+06    -10.2220E+06    -28.0137E+06    -27.8531E+06     52.9513E+06    -10.2220E+06     2.65731E+06
             925     21.2734E-03     11.3397E-03     17.9991E-03     116.662E-03    -56.6111E-03    -60.0504E-03    -59.3987E-03     116.010E-03    -56.6111E-03     20.6049E-03     189.946E-03     33.2064E+06     4.24287E+03    -22.8284E+06    -37.8720E+06    -29.3617E+06    -17.8331E+06    -13.5014E+06     1.93799E+06
             926     20.7664E-03     10.4002E-03     17.9745E-03     115.525E-03    -56.4225E-03    -59.1026E-03    -58.8586E-03     115.281E-03    -56.4225E-03     12.5596E-03     171.797E-03     55.4374E+06    -9.72760E+06    -30.2144E+06    -71.9075E+06    -30.8118E+06    -71.3101E+06    -9.72760E+06     2.56655E+06
             927     20.2929E-03     9.45532E-03     17.9555E-03     114.310E-03    -56.2288E-03    -58.0814E-03    -57.9897E-03     114.218E-03    -56.2288E-03     7.13396E-03     157.260E-03     93.8236E+06    -12.1740E+06    -36.7320E+06    -115.822E+06    -37.4585E+06    -115.095E+06    -12.1740E+06     5.60818E+06
             928     19.8579E-03     8.51122E-03     17.9415E-03     113.600E-03    -56.0367E-03    -57.5632E-03    -57.5382E-03     113.575E-03    -56.0367E-03     2.79579E-03     145.769E-03     118.170E+06    -15.6504E+06    -41.4708E+06    -144.556E+06    -41.8140E+06    -144.213E+06    -15.6504E+06     4.83618E+06
             929     19.4635E-03     7.56791E-03     17.9319E-03     112.890E-03    -55.8781E-03    -57.0116E-03    -57.0028E-03     112.881E-03    -55.8781E-03     301.975E-06     137.015E-03     146.864E+06    -16.3908E+06    -42.7135E+06    -174.625E+06    -42.8850E+06    -174.454E+06    -16.3908E+06     4.06430E+06
             930     19.1082E-03     6.62194E-03     17.9241E-03     112.225E-03    -55.7450E-03    -56.4803E-03    -56.4674E-03     112.212E-03    -55.7450E-03    -1.44354E-03     129.816E-03     169.964E+06    -18.0210E+06    -46.3201E+06    -200.358E+06    -46.5311E+06    -200.147E+06    -18.0210E+06     5.39835E+06
             931     18.7961E-03     5.67676E-03     17.9183E-03     111.668E-03    -55.6055E-03    -56.0623E-03    -56.0448E-03     111.650E-03    -55.6055E-03    -2.53512E-03     124.089E-03     180.191E+06    -25.0186E+06    -50.9597E+06    -216.736E+06    -51.1003E+06    -216.595E+06    -25.0186E+06     4.55031E+06
             932     18.5282E-03     4.73181E-03     17.9138E-03     111.060E-03    -55.3890E-03    -55.6709E-03    -55.5363E-03     111.043E-03    -55.5066E-03    -2.95360E-03     119.454E-03     190.020E+06    -34.5293E+06    -55.7335E+06    -234.240E+06    -55.8239E+06    -234.150E+06    -34.5293E+06     3.87540E+06
             933     18.3085E-03     3.78453E-03     17.9130E-03     110.820E-03    -55.3241E-03    -55.4960E-03    -55.3388E-03     110.803E-03    -55.4647E-03    -3.06212E-03     116.137E-03     199.478E+06    -43.8750E+06    -61.0304E+06    -251.363E+06    -61.0837E+06    -251.310E+06    -43.8750E+06     2.91416E+06
             934     18.1335E-03     2.83880E-03     17.9099E-03     110.947E-03    -55.3739E-03    -55.5732E-03    -55.5372E-03     110.934E-03    -55.3969E-03    -2.69232E-03     114.079E-03     205.525E+06    -53.9876E+06    -66.4422E+06    -265.444E+06    -66.4607E+06    -265.426E+06    -53.9876E+06     1.37674E+06
             935     18.0108E-03     1.89275E-03     17.9111E-03     110.758E-03    -55.2377E-03    -55.5207E-03    -55.5137E-03     110.751E-03    -55.2377E-03    -1.98373E-03     112.464E-03     205.634E+06    -64.2409E+06    -70.8387E+06    -273.072E+06    -70.8414E+06    -273.069E+06    -64.2409E+06     505.226E+03
             936     17.9347E-03     947.413E-06     17.9097E-03     110.238E-03    -54.9295E-03    -55.3083E-03    -55.3065E-03     110.236E-03    -54.9295E-03    -774.810E-06     111.173E-03     203.444E+06    -70.7027E+06    -74.6535E+06    -276.090E+06    -73.7634E+06    -276.081E+06    -71.6017E+06    -558.017E+03
             937     23.6708E-03     16.0605E-03     17.3887E-03     138.988E-03    -57.9401E-03    -81.0481E-03    -58.5606E-03     116.501E-03    -57.9401E-03     122.127E-03     424.233E-03     135.747E+06     131.647E+06     125.029E+06    -7.20533E+06    -7.11627E+06     131.558E+06     125.029E+06    -90.9968E+03
             938     22.8728E-03     15.1109E-03     17.1705E-03     147.247E-03    -57.6842E-03    -89.5630E-03    -59.8717E-03     117.556E-03    -57.6842E-03     154.754E-03     424.543E-03     130.407E+06     123.036E+06     95.4053E+06    -18.0429E+06    -17.9561E+06     122.949E+06     95.4053E+06     533.791E+03
             939     22.1570E-03     14.1717E-03     17.0322E-03     130.454E-03    -57.2327E-03    -73.2216E-03    -61.1621E-03     118.395E-03    -57.2327E-03     92.0053E-03     313.311E-03     119.558E+06     112.618E+06     53.3463E+06    -23.6484E+06    -23.6210E+06     112.591E+06     53.3463E+06     833.382E+03
             940     21.5107E-03     13.2313E-03     16.9600E-03     120.954E-03    -56.6787E-03    -64.2752E-03    -60.8786E-03     117.557E-03    -56.6787E-03     48.0985E-03     251.560E-03     114.063E+06     102.436E+06     15.5346E+06    -25.2896E+06    -25.2016E+06     102.348E+06     15.5346E+06     1.96635E+06
             941     20.9024E-03     12.2880E-03     16.9090E-03     118.273E-03    -56.1928E-03    -62.0799E-03    -60.8910E-03     117.084E-03    -56.1928E-03     27.8407E-03     212.691E-03     74.1737E+06     55.1069E+06    -9.76456E+06    -25.6237E+06    -25.5148E+06     54.9979E+06    -9.76456E+06     2.47062E+06
             942     20.3377E-03     11.3513E-03     16.8751E-03     116.545E-03    -55.8338E-03    -60.7116E-03    -60.3496E-03     116.183E-03    -55.8338E-03     14.7088E-03     186.768E-03     34.6380E+06     1.07746E+06    -22.3931E+06    -37.5228E+06    -27.3206E+06    -17.0472E+06    -14.4706E+06     2.87257E+06
             943     19.8070E-03     10.4068E-03     16.8527E-03     115.001E-03    -55.5236E-03    -59.4772E-03    -59.3840E-03     114.908E-03    -55.5236E-03     6.85883E-03     168.633E-03     60.3814E+06    -9.82741E+06    -30.7388E+06    -77.4904E+06    -32.0822E+06    -76.1471E+06    -9.82741E+06     6.84355E+06
             944     19.3137E-03     9.46544E-03     16.8352E-03     113.700E-03    -55.1753E-03    -58.5251E-03    -58.4889E-03     113.664E-03    -55.1753E-03     1.22541E-03     154.150E-03     93.5167E+06    -10.9286E+06    -34.1712E+06    -113.774E+06    -34.9899E+06    -112.955E+06    -10.9286E+06     6.98598E+06
             945     18.8577E-03     8.52179E-03     16.8224E-03     112.287E-03    -54.8430E-03    -57.4443E-03    -57.4080E-03     112.251E-03    -54.8430E-03    -3.24853E-03     142.366E-03     118.470E+06    -14.3703E+06    -37.2815E+06    -142.600E+06    -37.7145E+06    -142.167E+06    -14.3703E+06     5.19775E+06
             946     18.4419E-03     7.57611E-03     16.8138E-03     111.241E-03    -54.5622E-03    -56.6788E-03    -56.6114E-03     111.174E-03    -54.5622E-03    -5.56359E-03     133.602E-03     145.821E+06    -17.9820E+06    -43.8141E+06    -174.990E+06    -44.2230E+06    -174.581E+06    -17.9820E+06     5.61276E+06
             947     18.0682E-03     6.63199E-03     16.8071E-03     110.129E-03    -54.3053E-03    -55.8234E-03    -55.7413E-03     110.047E-03    -54.3053E-03    -6.70386E-03     126.287E-03     165.051E+06    -21.6229E+06    -47.9697E+06    -198.245E+06    -48.1350E+06    -198.080E+06    -21.6229E+06     4.59688E+06
             948     17.7382E-03     5.68593E-03     16.8022E-03     108.911E-03    -54.1061E-03    -54.8054E-03    -54.7214E-03     108.827E-03    -54.1061E-03    -7.01887E-03     120.247E-03     178.343E+06    -27.6468E+06    -50.9778E+06    -216.473E+06    -51.1439E+06    -216.307E+06    -27.6468E+06     5.13235E+06
             949     17.4551E-03     4.73736E-03     16.7999E-03     108.237E-03    -53.9758E-03    -54.2611E-03    -54.1804E-03     108.156E-03    -53.9758E-03    -6.81668E-03     115.904E-03     187.403E+06    -37.1995E+06    -56.2223E+06    -233.379E+06    -56.3816E+06    -233.220E+06    -37.1995E+06     5.14387E+06
             950     17.2194E-03     3.79112E-03     16.7969E-03     107.958E-03    -53.8917E-03    -54.0667E-03    -54.0053E-03     107.897E-03    -53.8917E-03    -6.01489E-03     112.741E-03     196.686E+06    -45.1443E+06    -60.8149E+06    -249.186E+06    -60.8979E+06    -249.103E+06    -45.1443E+06     3.90803E+06
             951     17.0356E-03     2.84321E-03     16.7967E-03     107.658E-03    -53.7606E-03    -53.8977E-03    -53.7876E-03     107.617E-03    -53.8295E-03    -4.96396E-03     110.431E-03     203.016E+06    -53.9297E+06    -65.1931E+06    -262.329E+06    -65.2314E+06    -262.290E+06    -53.9297E+06     2.33310E+06
             952     16.9017E-03     1.89537E-03     16.7951E-03     107.561E-03    -53.6473E-03    -53.9136E-03    -53.7503E-03     107.539E-03    -53.7889E-03    -3.48190E-03     109.049E-03     206.284E+06    -63.3376E+06    -69.5559E+06    -272.643E+06    -69.5626E+06    -272.637E+06    -63.3376E+06     707.914E+03
             953     16.8236E-03     947.355E-06     16.7969E-03     107.504E-03    -53.5122E-03    -53.9916E-03    -53.9117E-03     107.497E-03    -53.5849E-03    -1.77383E-03     108.238E-03     203.960E+06    -70.6074E+06    -73.3264E+06    -275.906E+06    -72.4452E+06    -275.888E+06    -71.5065E+06     282.706E+03
             954     22.8541E-03     16.0572E-03     16.2628E-03     141.148E-03    -57.8455E-03    -83.3022E-03    -61.4026E-03     119.248E-03    -57.8455E-03     122.895E-03     422.901E-03     135.075E+06     130.714E+06     125.221E+06    -6.96650E+06    -6.91112E+06     130.659E+06     125.221E+06     748.930E+03
             955     22.0501E-03     15.1192E-03     16.0504E-03     149.017E-03    -57.4070E-03    -91.6097E-03    -62.9124E-03     120.319E-03    -57.4070E-03     154.009E-03     421.668E-03     129.494E+06     125.540E+06     98.5575E+06    -14.2592E+06    -14.1968E+06     125.478E+06     98.5575E+06     2.25312E+06
             956     21.3033E-03     14.1756E-03     15.9023E-03     131.390E-03    -56.7447E-03    -74.6453E-03    -63.3795E-03     120.124E-03    -56.7447E-03     88.4741E-03     310.215E-03     117.423E+06     112.665E+06     52.4803E+06    -21.0378E+06    -21.0191E+06     112.646E+06     52.4803E+06     326.105E+03
             957     20.6388E-03     13.2401E-03     15.8322E-03     122.432E-03    -55.9599E-03    -66.4722E-03    -63.8235E-03     119.783E-03    -55.9599E-03     42.7671E-03     248.614E-03     111.886E+06     100.105E+06     12.3498E+06    -24.6235E+06    -24.6163E+06     100.097E+06     12.3498E+06    -578.957E+03
             958     20.0138E-03     12.3054E-03     15.7838E-03     118.706E-03    -55.2442E-03    -63.4618E-03    -62.6694E-03     117.914E-03    -55.2442E-03     22.7412E-03     209.271E-03     75.3242E+06     55.6255E+06    -10.6775E+06    -26.1172E+06    -25.9858E+06     55.4941E+06    -10.6775E+06     1.56174E+06
             959     19.4219E-03     11.3613E-03     15.7521E-03     116.306E-03    -54.6995E-03    -61.6060E-03    -61.4326E-03     116.132E-03    -54.6995E-03     8.51069E-03     182.967E-03     42.1626E+06     2.84051E+06    -21.6320E+06    -44.0691E+06    -27.8488E+06    -21.0772E+06    -13.9346E+06     6.35810E+06
             960     18.8710E-03     10.4224E-03     15.7318E-03     114.669E-03    -54.1680E-03    -60.5015E-03    -60.4698E-03     114.638E-03    -54.1680E-03    -452.053E-06     164.847E-03     60.9381E+06    -9.88765E+06    -27.2643E+06    -77.4777E+06    -28.9886E+06    -75.7535E+06    -9.88765E+06     7.67691E+06
             961     18.3523E-03     9.47988E-03     15.7143E-03     112.741E-03    -53.6007E-03    -59.1405E-03    -59.0349E-03     112.636E-03    -53.6007E-03    -6.52542E-03     150.184E-03     92.6740E+06    -10.3418E+06    -30.5503E+06    -111.329E+06    -31.4009E+06    -110.479E+06    -10.3418E+06     6.99302E+06
             962     17.8762E-03     8.53647E-03     15.7063E-03     110.703E-03    -53.0730E-03    -57.6302E-03    -57.4298E-03     110.503E-03    -53.0730E-03    -10.8013E-03     138.167E-03     121.041E+06    -13.1139E+06    -35.8384E+06    -143.899E+06    -36.7870E+06    -142.951E+06    -13.1139E+06     9.01025E+06
             963     17.4370E-03     7.59225E-03     15.6974E-03     108.684E-03    -52.6137E-03    -56.0707E-03    -55.8037E-03     108.417E-03    -52.6137E-03    -12.6686E-03     128.879E-03     144.627E+06    -15.4317E+06    -40.1454E+06    -170.811E+06    -40.6863E+06    -170.270E+06    -15.4317E+06     7.54262E+06
             964     17.0424E-03     6.64523E-03     15.6935E-03     106.789E-03    -52.2391E-03    -54.5504E-03    -54.2506E-03     106.490E-03    -52.2391E-03    -13.3073E-03     121.281E-03     166.114E+06    -21.2322E+06    -45.1797E+06    -197.998E+06    -45.4406E+06    -197.737E+06    -21.2322E+06     5.92917E+06
             965     16.6927E-03     5.69669E-03     15.6905E-03     105.354E-03    -51.9442E-03    -53.4099E-03    -53.1397E-03     105.084E-03    -51.9442E-03    -12.5846E-03     115.436E-03     177.487E+06    -29.3246E+06    -51.3616E+06    -216.798E+06    -51.6184E+06    -216.542E+06    -29.3246E+06     6.37736E+06
             966     16.3913E-03     4.74948E-03     15.6881E-03     104.353E-03    -51.7171E-03    -52.6360E-03    -52.4101E-03     104.127E-03    -51.7171E-03    -11.5730E-03     111.054E-03     184.862E+06    -37.3924E+06    -55.9594E+06    -230.814E+06    -56.1804E+06    -230.593E+06    -37.3924E+06     6.12085E+06
             967     16.1403E-03     3.79907E-03     15.6869E-03     103.536E-03    -51.5596E-03    -51.9766E-03    -51.8110E-03     103.371E-03    -51.5596E-03    -9.82206E-03     107.711E-03     193.054E+06    -46.2954E+06    -60.4489E+06    -246.029E+06    -60.5918E+06    -245.886E+06    -46.2954E+06     4.86642E+06
             968     15.9424E-03     2.84982E-03     15.6856E-03     103.049E-03    -51.4082E-03    -51.6409E-03    -51.4628E-03     102.940E-03    -51.4771E-03    -7.90948E-03     105.459E-03     200.202E+06    -55.1188E+06    -64.7770E+06    -259.958E+06    -64.8183E+06    -259.916E+06    -55.1188E+06     2.64344E+06
             969     15.8011E-03     1.89958E-03     15.6865E-03     102.820E-03    -51.2655E-03    -51.5543E-03    -51.2764E-03     102.763E-03    -51.4865E-03    -5.59741E-03     104.078E-03     205.334E+06    -62.1624E+06    -68.7919E+06    -270.730E+06    -68.8078E+06    -270.714E+06    -62.1624E+06     1.39253E+06
             970     15.7135E-03     949.739E-06     15.6847E-03     102.987E-03    -51.2118E-03    -51.7748E-03    -51.4339E-03     102.969E-03    -51.5350E-03    -3.00875E-03     103.527E-03     203.845E+06    -69.8955E+06    -73.2943E+06    -275.402E+06    -73.1428E+06    -275.379E+06    -70.0702E+06     1.74231E+06
             971     22.0617E-03     16.0576E-03     15.1285E-03     142.784E-03    -57.7180E-03    -85.0663E-03    -64.5759E-03     122.294E-03    -57.7180E-03     121.902E-03     420.551E-03     135.874E+06     129.820E+06     124.349E+06    -8.66105E+06    -8.63743E+06     129.796E+06     124.349E+06    -98.1402E+03
             972     21.2446E-03     15.1231E-03     14.9207E-03     151.392E-03    -57.0126E-03    -94.3796E-03    -67.5799E-03     124.593E-03    -57.0126E-03     151.556E-03     419.839E-03     130.805E+06     126.046E+06     98.4852E+06    -15.1745E+06    -15.1528E+06     126.025E+06     98.4852E+06     157.840E+03
             973     20.4867E-03     14.1906E-03     14.7760E-03     133.751E-03    -56.0438E-03    -77.7070E-03    -66.9994E-03     123.043E-03    -56.0438E-03     86.8006E-03     306.367E-03     117.487E+06     113.848E+06     53.1069E+06    -20.0229E+06    -20.0025E+06     113.827E+06     53.1069E+06     950.579E+03
             974     19.7924E-03     13.2533E-03     14.7000E-03     122.811E-03    -55.0114E-03    -67.7993E-03    -65.6520E-03     120.663E-03    -55.0114E-03     38.7316E-03     244.251E-03     110.797E+06     98.2849E+06     10.5571E+06    -24.8267E+06    -24.7860E+06     98.2441E+06     10.5571E+06     1.11090E+06
             975     19.1453E-03     12.3147E-03     14.6592E-03     119.980E-03    -54.0506E-03    -65.9290E-03    -65.3476E-03     119.398E-03    -54.0506E-03     17.4358E-03     207.245E-03     74.3932E+06     51.6946E+06    -13.1971E+06    -29.2175E+06    -28.9566E+06     51.4337E+06    -13.1971E+06     2.96050E+06
             976     18.5336E-03     11.3808E-03     14.6278E-03     117.302E-03    -53.1767E-03    -64.1256E-03    -64.0397E-03     117.216E-03    -53.1767E-03     1.43012E-03     180.615E-03     38.1307E+06    -1.38384E+06    -22.2657E+06    -44.1558E+06    -29.4458E+06    -21.8614E+06    -16.4982E+06      4.2522E+06
             977     17.9574E-03     10.4411E-03     14.6099E-03     114.355E-03    -52.3120E-03    -62.0428E-03    -61.9074E-03     114.219E-03    -52.3120E-03    -8.07950E-03     161.452E-03     58.0273E+06    -14.0012E+06    -27.3966E+06    -77.4807E+06    -28.7579E+06    -76.1194E+06    -14.0012E+06     5.87601E+06
             978     17.4166E-03     9.50048E-03     14.5972E-03     111.521E-03    -51.4861E-03    -60.0347E-03    -59.6610E-03     111.147E-03    -51.4861E-03    -14.9591E-03     146.159E-03     96.0856E+06    -9.69840E+06    -29.9266E+06    -114.268E+06    -31.4065E+06    -112.788E+06    -9.69840E+06     10.5391E+06
             979     16.9145E-03     8.55739E-03     14.5901E-03     108.415E-03    -50.6992E-03    -57.7159E-03    -57.1488E-03     107.848E-03    -50.6992E-03    -18.8794E-03     133.295E-03     118.878E+06    -10.6604E+06    -33.5488E+06    -139.273E+06    -34.6852E+06    -138.137E+06    -10.6604E+06     10.1098E+06
             980     16.4527E-03     7.61177E-03     14.5860E-03     105.444E-03    -50.0255E-03    -55.4185E-03    -54.7488E-03     104.774E-03    -50.0255E-03    -20.2290E-03     123.499E-03     144.985E+06    -13.7624E+06    -36.7181E+06    -168.846E+06    -37.2236E+06    -168.341E+06    -13.7624E+06     8.08510E+06
             981     16.0348E-03     6.66361E-03     14.5846E-03     102.880E-03    -49.4829E-03    -53.3971E-03    -52.6946E-03     102.178E-03    -49.4829E-03    -20.5507E-03     115.625E-03     169.819E+06    -17.3752E+06    -41.7884E+06    -198.071E+06    -42.4196E+06    -197.440E+06    -17.3752E+06     9.76039E+06
             982     15.6627E-03     5.71475E-03     14.5829E-03     100.736E-03    -49.0172E-03    -51.7190E-03    -51.0941E-03     100.111E-03    -49.0172E-03    -19.1047E-03     109.481E-03     177.619E+06    -26.2558E+06    -48.1656E+06    -213.798E+06    -48.6440E+06    -213.320E+06    -26.2558E+06     8.52066E+06
             983     15.3403E-03     4.76277E-03     14.5822E-03     99.0125E-03    -48.6595E-03    -50.3530E-03    -49.8561E-03     98.5157E-03    -48.6595E-03    -16.8407E-03     104.719E-03     184.674E+06    -35.4833E+06    -53.6217E+06    -228.540E+06    -53.9112E+06    -228.251E+06    -35.4833E+06     7.05330E+06
             984     15.0721E-03     3.81207E-03     14.5821E-03     97.7587E-03    -48.3976E-03    -49.3611E-03    -49.0062E-03     97.4037E-03    -48.3976E-03    -14.1067E-03     101.272E-03     190.704E+06    -45.3964E+06    -58.1920E+06    -242.146E+06    -58.3945E+06    -241.943E+06    -45.3964E+06     5.87508E+06
             985     14.8594E-03     2.85872E-03     14.5819E-03     96.9098E-03    -48.2374E-03    -48.6724E-03    -48.4474E-03     96.6848E-03    -48.2374E-03    -11.2026E-03     98.9152E-03     199.672E+06    -53.6167E+06    -62.4569E+06    -257.550E+06    -62.5413E+06    -257.466E+06    -53.6167E+06     3.74985E+06
             986     14.7058E-03     1.90644E-03     14.5817E-03     96.4072E-03    -48.0864E-03    -48.3209E-03    -48.1265E-03     96.2921E-03    -48.1657E-03    -7.76350E-03     97.4289E-03     205.069E+06    -60.8096E+06    -66.8706E+06    -268.822E+06    -66.7169E+06    -268.768E+06    -61.0174E+06     3.09722E+06
             987     14.6136E-03     952.850E-06     14.5825E-03     96.2807E-03    -47.8843E-03    -48.3964E-03    -48.1146E-03     96.2494E-03    -48.1348E-03    -3.74194E-03     96.7079E-03     203.231E+06    -67.7338E+06    -70.1070E+06    -272.126E+06    -69.7750E+06    -272.075E+06    -68.1164E+06     1.16681E+06
             988     21.3072E-03     16.0659E-03     13.9959E-03     146.307E-03    -57.4992E-03    -88.8082E-03    -68.4920E-03     125.991E-03    -57.4992E-03     123.631E-03     417.077E-03     133.981E+06     131.038E+06     125.371E+06    -5.65994E+06    -5.63403E+06     130.121E+06     126.262E+06     629.322E+03
             989     20.4714E-03     15.1297E-03     13.7903E-03     154.267E-03    -56.5204E-03    -97.7468E-03    -71.9829E-03     128.503E-03    -56.5204E-03     150.488E-03     417.295E-03     129.310E+06     125.478E+06     98.8815E+06    -13.9168E+06    -13.9067E+06     125.468E+06     98.8815E+06    -312.553E+03
             990     19.6861E-03     14.1994E-03     13.6352E-03     135.839E-03    -55.2401E-03    -80.5992E-03    -71.0374E-03     126.277E-03    -55.2401E-03     82.5227E-03     304.286E-03     116.973E+06     112.269E+06     53.4255E+06    -21.1259E+06    -21.1154E+06     112.259E+06     53.4255E+06     842.214E+03
             991     18.9850E-03     13.2677E-03     13.5794E-03     124.599E-03    -53.8786E-03    -70.7200E-03    -69.0368E-03     122.915E-03    -53.8786E-03     34.4207E-03     242.434E-03     110.179E+06     96.9811E+06     10.6015E+06    -25.2929E+06    -25.1608E+06     96.8490E+06     10.6015E+06     3.35136E+06
             992     18.3040E-03     12.3355E-03     13.5231E-03     121.453E-03    -52.5648E-03    -68.8885E-03    -68.5087E-03     121.074E-03    -52.5648E-03     10.8983E-03     205.595E-03     73.6066E+06     51.3313E+06    -14.8016E+06    -27.8025E+06    -27.5073E+06     51.0361E+06    -14.8016E+06     4.40801E+06
             993     17.6753E-03     11.4019E-03     13.5061E-03     117.920E-03    -51.3454E-03    -66.5745E-03    -66.4939E-03     117.839E-03    -51.3454E-03    -5.91899E-03     178.963E-03     37.4650E+06     355.785E+03    -24.7099E+06    -41.4679E+06    -30.3474E+06    -19.4640E+06    -16.0106E+06     3.64048E+06
             994     17.0713E-03     10.4649E-03     13.4876E-03     114.114E-03    -50.1328E-03    -63.9807E-03    -63.6404E-03     113.773E-03    -50.1328E-03    -14.5052E-03     158.886E-03     59.7281E+06    -15.0151E+06    -32.0463E+06    -80.7843E+06    -33.7241E+06    -79.1065E+06    -15.0151E+06     5.54435E+06
             995     16.5074E-03     9.52600E-03     13.4815E-03     110.150E-03    -48.9450E-03    -61.2055E-03    -60.4765E-03     109.422E-03    -48.9450E-03    -21.9072E-03     142.436E-03     95.2225E+06    -13.1037E+06    -30.6389E+06    -115.774E+06    -31.6047E+06    -114.808E+06    -13.1037E+06     7.35885E+06
             996     15.9788E-03     8.58256E-03     13.4782E-03     105.918E-03    -47.8627E-03    -58.0553E-03    -56.9966E-03     104.859E-03    -47.8627E-03    -25.9872E-03     128.956E-03     119.578E+06    -8.40524E+06    -28.0901E+06    -136.513E+06    -29.2007E+06    -135.402E+06    -8.40524E+06     9.47979E+06
             997     15.4917E-03     7.63579E-03     13.4791E-03     102.052E-03    -46.9182E-03    -55.1337E-03    -53.8949E-03     100.813E-03    -46.9182E-03    -27.5496E-03     118.388E-03     148.463E+06    -10.5564E+06    -33.8504E+06    -169.287E+06    -35.0555E+06    -168.082E+06    -10.5564E+06     12.0331E+06
             998     15.0473E-03     6.68732E-03     13.4796E-03     98.5729E-03    -46.0944E-03    -52.4785E-03    -51.2132E-03     97.3076E-03    -46.0944E-03    -27.2712E-03     109.803E-03     169.602E+06    -15.0471E+06    -40.6553E+06    -195.996E+06    -41.5246E+06    -195.127E+06    -15.0471E+06     11.3915E+06
             999     14.6516E-03     5.73534E-03     13.4824E-03     95.2078E-03    -45.3974E-03    -49.8104E-03    -48.6812E-03     94.0786E-03    -45.3974E-03    -25.2150E-03     102.696E-03     177.482E+06    -21.5906E+06    -44.6846E+06    -209.466E+06    -45.3598E+06    -208.791E+06    -21.5906E+06     10.3333E+06
            1000     14.3062E-03     4.78238E-03     13.4832E-03     92.5062E-03    -44.8619E-03    -47.6443E-03    -46.7558E-03     91.6177E-03    -44.8619E-03    -21.9838E-03     97.2898E-03     185.178E+06    -32.6994E+06    -50.2871E+06    -226.008E+06    -50.7568E+06    -225.539E+06    -32.6994E+06     8.74598E+06
            1001     14.0170E-03     3.82629E-03     13.4846E-03     90.6299E-03    -44.4615E-03    -46.1684E-03    -45.5415E-03     90.0030E-03    -44.4615E-03    -18.1777E-03     93.5120E-03     189.304E+06    -44.5005E+06    -55.5281E+06    -239.044E+06    -55.8183E+06    -238.754E+06    -44.5005E+06     7.18223E+06
            1002     13.7876E-03     2.87137E-03     13.4852E-03     89.2745E-03    -44.1944E-03    -45.0801E-03    -44.6954E-03     88.8898E-03    -44.1944E-03    -14.0802E-03     90.8701E-03     197.486E+06     -52.674E+06    -59.8111E+06    -253.623E+06    -60.0260E+06    -253.408E+06     -52.674E+06     6.18388E+06
            1003     13.6218E-03     1.91377E-03     13.4867E-03     88.4691E-03    -44.0081E-03    -44.4610E-03    -44.2728E-03     88.2810E-03    -44.0081E-03    -9.59347E-03     89.2706E-03     205.159E+06    -58.4047E+06    -63.7121E+06    -266.145E+06    -63.6012E+06    -266.048E+06    -58.6126E+06     4.25805E+06
            1004     13.5199E-03     957.334E-06     13.4859E-03     87.8418E-03    -43.6102E-03    -44.2316E-03    -44.1756E-03     87.7858E-03    -43.6102E-03    -4.87496E-03     88.2444E-03     202.938E+06    -64.1774E+06    -67.3217E+06    -268.657E+06    -66.1091E+06    -268.582E+06    -65.4647E+06     1.88469E+06
            1005     20.5813E-03     16.0630E-03     12.8674E-03     150.824E-03    -57.2116E-03    -93.6127E-03    -73.4377E-03     130.649E-03    -57.2116E-03     124.386E-03     411.332E-03     133.575E+06     130.872E+06     124.384E+06    -5.77926E+06    -5.77254E+06     129.689E+06     125.560E+06     864.156E+03
            1006     19.7235E-03     15.1406E-03     12.6403E-03     157.172E-03    -55.9322E-03    -101.240E-03    -76.5263E-03     132.459E-03    -55.9322E-03     148.848E-03     413.836E-03     128.682E+06     125.244E+06     98.5076E+06    -13.7364E+06    -13.7341E+06     125.242E+06     98.5076E+06     333.256E+03
            1007     18.9352E-03     14.2143E-03     12.5098E-03     137.347E-03    -54.3326E-03    -83.0146E-03    -74.8675E-03     129.200E-03    -54.3326E-03     77.6808E-03     303.171E-03     115.753E+06     110.254E+06     52.4320E+06    -21.5775E+06    -21.5393E+06     110.216E+06     52.4320E+06     1.35883E+06
            1008     18.1976E-03     13.2850E-03     12.4362E-03     127.320E-03    -52.6247E-03    -74.6956E-03    -73.2309E-03     125.856E-03    -52.6247E-03     31.7265E-03     241.914E-03     108.811E+06     95.5012E+06     11.3295E+06    -26.0096E+06    -25.8796E+06     95.3711E+06     11.3295E+06     3.20435E+06
            1009     17.5061E-03     12.3580E-03     12.3993E-03     122.385E-03    -50.9534E-03    -71.4320E-03    -71.1993E-03     122.153E-03    -50.9534E-03     7.52460E-03     204.023E-03     74.4739E+06     52.8288E+06    -13.6529E+06    -27.6142E+06    -26.9200E+06     52.1346E+06    -13.6529E+06     5.03620E+06
            1010     16.8425E-03     11.4236E-03     12.3763E-03     118.233E-03    -49.4086E-03    -68.8248E-03    -68.6528E-03     118.061E-03    -49.4086E-03    -9.45414E-03     177.761E-03     42.4677E+06     3.92603E+06    -24.8346E+06    -43.0834E+06    -29.3825E+06    -19.8282E+06    -14.7812E+06     7.49776E+06
            1011     16.2193E-03     10.4906E-03     12.3699E-03     114.100E-03    -47.8384E-03    -66.2621E-03    -65.6831E-03     113.522E-03    -47.8384E-03    -19.6803E-03     157.298E-03     58.3260E+06    -12.5477E+06    -30.1550E+06    -77.0474E+06    -31.8163E+06    -75.3861E+06    -12.5477E+06     5.75849E+06
            1012     15.6244E-03     9.55086E-03     12.3654E-03     108.866E-03    -46.2578E-03    -62.6080E-03    -61.4843E-03     107.742E-03    -46.2578E-03    -27.2424E-03     139.570E-03     89.9336E+06    -17.5864E+06    -34.0603E+06    -114.518E+06    -34.2023E+06    -114.376E+06    -17.5864E+06     3.17314E+06
            1013     15.0718E-03     8.60927E-03     12.3709E-03     103.838E-03    -44.8246E-03    -59.0133E-03    -57.4485E-03     102.273E-03    -44.8246E-03    -31.5989E-03     125.710E-03     120.286E+06    -13.4378E+06    -34.8830E+06    -142.910E+06    -35.6444E+06    -142.149E+06    -13.4378E+06     7.59173E+06
            1014     14.5556E-03     7.66321E-03     12.3750E-03     98.7702E-03    -43.5371E-03    -55.2331E-03    -53.4328E-03     96.9699E-03    -43.5371E-03    -32.9823E-03     113.920E-03     149.358E+06    -6.87899E+06    -33.1933E+06    -167.622E+06    -34.4672E+06    -166.348E+06    -6.87899E+06     12.4368E+06
            1015     14.0846E-03     6.71285E-03     12.3820E-03     93.8687E-03    -42.3912E-03    -51.4774E-03    -49.6340E-03     92.0253E-03    -42.3912E-03    -32.4214E-03     104.113E-03     171.829E+06    -8.84608E+06    -34.7771E+06    -192.138E+06    -35.6994E+06    -191.216E+06    -8.84608E+06     11.7983E+06
            1016     13.6612E-03     5.75979E-03     12.3876E-03     89.4451E-03    -41.4059E-03    -48.0391E-03    -46.3919E-03     87.7978E-03    -41.4059E-03    -29.7908E-03     96.0929E-03     180.063E+06    -16.7483E+06    -39.2037E+06    -206.967E+06    -39.8768E+06    -206.294E+06    -16.7483E+06     10.4735E+06
            1017     13.2912E-03     4.80280E-03     12.3931E-03     85.6514E-03    -40.6219E-03    -45.0295E-03    -43.7206E-03     84.3426E-03    -40.6219E-03    -25.8548E-03     89.7600E-03     188.438E+06    -25.8385E+06    -43.2549E+06    -222.342E+06    -43.9286E+06    -221.669E+06    -25.8385E+06     10.6463E+06
            1018     12.9784E-03     3.84491E-03     12.3957E-03     82.6389E-03    -40.0348E-03    -42.6041E-03    -41.6658E-03     81.7006E-03    -40.0348E-03    -21.3853E-03     85.0371E-03     192.539E+06    -38.2311E+06    -49.0720E+06    -235.938E+06    -49.6635E+06    -235.346E+06    -38.2311E+06     10.2394E+06
            1019     12.7295E-03     2.88369E-03     12.3986E-03     80.6815E-03    -39.6334E-03    -41.0481E-03    -40.4719E-03     80.1053E-03    -39.6334E-03    -16.4106E-03     81.9697E-03     197.324E+06    -48.4955E+06    -54.6339E+06    -248.811E+06    -54.9986E+06    -248.446E+06    -48.4955E+06     8.15783E+06
            1020     12.5484E-03     1.92369E-03     12.4000E-03     79.4467E-03    -39.3328E-03    -40.1139E-03    -39.8437E-03     79.1765E-03    -39.3328E-03    -10.9541E-03     80.0965E-03     204.704E+06    -54.1318E+06    -58.8091E+06    -261.128E+06    -58.9689E+06    -260.969E+06    -54.1318E+06     5.42881E+06
            1021     12.4376E-03     962.335E-06     12.4003E-03     78.3991E-03    -38.9710E-03    -39.4281E-03    -39.3200E-03     78.3152E-03    -38.9953E-03    -5.81568E-03     78.8004E-03     203.094E+06    -58.9903E+06    -64.1760E+06     -264.62E+06    -63.1892E+06    -264.527E+06    -60.0698E+06     4.12268E+06
            1022     19.8979E-03     16.0767E-03     11.7247E-03     155.397E-03    -56.8464E-03    -98.5506E-03    -78.9410E-03     135.787E-03    -56.8464E-03     122.576E-03     404.913E-03     134.820E+06     130.571E+06     124.078E+06    -7.32961E+06    -7.31309E+06     129.342E+06     125.290E+06     1.28664E+06
            1023     19.0190E-03     15.1489E-03     11.4992E-03     159.058E-03    -55.2877E-03    -103.770E-03    -79.5597E-03     134.847E-03    -55.2877E-03     148.386E-03     409.608E-03     129.974E+06     122.815E+06     96.2743E+06    -17.4498E+06    -17.4356E+06     122.801E+06     96.2743E+06     895.744E+03
            1024     18.2096E-03     14.2257E-03     11.3674E-03     139.593E-03    -53.4339E-03    -86.1588E-03    -78.5440E-03     131.978E-03    -53.4339E-03     76.2638E-03     301.946E-03     117.334E+06     109.440E+06     52.0342E+06    -24.1574E+06    -24.1163E+06     109.399E+06     52.0342E+06     1.54196E+06
            1025     17.4557E-03     13.3032E-03     11.3016E-03     128.805E-03    -51.4434E-03    -77.3612E-03    -75.9899E-03     127.433E-03    -51.4434E-03     30.6572E-03     240.743E-03     108.994E+06     94.6974E+06     11.9437E+06    -27.4662E+06    -27.3824E+06     94.6136E+06     11.9437E+06     2.79155E+06
            1026     16.7343E-03     12.3736E-03     11.2663E-03     123.439E-03    -49.4909E-03    -73.9480E-03    -73.7627E-03     123.254E-03    -49.4909E-03     6.14158E-03     203.745E-03     72.9933E+06     50.2545E+06    -12.9465E+06    -29.5017E+06    -28.8670E+06     49.6198E+06    -12.9465E+06     4.41442E+06
            1027     16.0508E-03     11.4463E-03     11.2521E-03     119.169E-03    -47.6169E-03    -71.5518E-03    -71.3134E-03     118.930E-03    -47.6169E-03    -11.2843E-03     177.628E-03     40.9891E+06     4.13012E+06    -21.5831E+06    -41.8080E+06    -27.3432E+06    -19.4549E+06    -12.4628E+06     6.80804E+06
            1028     15.3950E-03     10.5126E-03     11.2469E-03     113.850E-03    -45.7202E-03    -68.1296E-03    -67.3727E-03     113.093E-03    -45.7202E-03    -22.8376E-03     156.496E-03     60.0539E+06    -5.47560E+06    -26.3828E+06    -72.8979E+06    -28.1845E+06    -71.0962E+06    -5.47560E+06     7.99887E+06
            1029     14.7786E-03     9.57763E-03     11.2551E-03     107.992E-03    -43.8050E-03    -64.1866E-03    -62.8395E-03     106.644E-03    -43.8050E-03    -30.1083E-03     138.226E-03     93.3930E+06    -9.35387E+06    -33.4620E+06    -112.322E+06    -34.3942E+06     -111.39E+06    -9.35387E+06     6.91669E+06
            1030     14.1923E-03     8.63485E-03     11.2633E-03     101.870E-03    -41.9722E-03    -59.8979E-03    -58.0642E-03     100.036E-03    -41.9722E-03    -34.1508E-03     123.279E-03     120.962E+06    -13.9168E+06    -38.2793E+06    -145.164E+06    -38.5146E+06    -144.928E+06    -13.9168E+06     4.34359E+06
            1031     13.6490E-03     7.68923E-03     11.2770E-03     95.6281E-03    -40.3050E-03    -55.3231E-03    -53.2015E-03     93.5066E-03    -40.3050E-03    -35.5034E-03     110.397E-03     146.211E+06    -10.6916E+06    -36.8248E+06    -168.188E+06    -37.1806E+06    -167.833E+06    -10.6916E+06     5.40094E+06
            1032     13.1469E-03     6.73820E-03     11.2888E-03     89.5349E-03    -38.8366E-03    -50.6983E-03    -48.5213E-03     87.3579E-03    -38.8366E-03    -34.6570E-03     99.4676E-03     171.000E+06    -6.78107E+06    -33.7318E+06    -189.623E+06    -34.3121E+06    -189.042E+06    -6.78107E+06     8.71527E+06
            1033     12.6945E-03     5.78259E-03     11.3010E-03     83.9973E-03    -37.5405E-03    -46.4568E-03    -44.4772E-03     82.0177E-03    -37.5405E-03    -31.8613E-03     90.4205E-03     183.058E+06    -12.3727E+06    -34.7736E+06    -205.565E+06    -35.4427E+06    -204.896E+06    -12.3727E+06     10.4651E+06
            1034     12.2956E-03     4.82454E-03     11.3095E-03     79.1003E-03    -36.4709E-03    -42.6295E-03    -41.0278E-03     77.4986E-03    -36.4709E-03    -27.6786E-03     83.0168E-03     192.365E+06    -19.8840E+06    -39.0270E+06    -221.097E+06    -39.8108E+06    -220.313E+06    -19.8840E+06     11.7690E+06
            1035     11.9579E-03     3.86220E-03     11.3170E-03     75.0162E-03    -35.6359E-03    -39.3803E-03    -38.2284E-03     73.8643E-03    -35.6359E-03    -22.7221E-03     77.2399E-03     196.478E+06    -29.0270E+06    -43.0468E+06    -232.084E+06    -43.8882E+06    -231.243E+06    -29.0270E+06     12.4730E+06
            1036     11.6866E-03     2.89871E-03     11.3214E-03     72.0713E-03    -35.0250E-03    -37.0463E-03    -36.3493E-03     71.3742E-03    -35.0250E-03    -17.1789E-03     73.2330E-03     198.348E+06    -40.5693E+06    -47.8106E+06    -242.429E+06    -48.4325E+06    -241.807E+06    -40.5693E+06     10.6222E+06
            1037     11.4875E-03     1.93281E-03     11.3237E-03     70.1461E-03    -34.6302E-03    -35.5159E-03    -35.1739E-03     69.8041E-03    -34.6302E-03    -11.7011E-03     70.7266E-03     204.934E+06    -48.1866E+06    -52.8565E+06    -255.412E+06    -53.1235E+06    -255.145E+06    -48.1866E+06     6.93154E+06
            1038     11.3675E-03     966.142E-06     11.3264E-03     69.0270E-03    -34.3354E-03    -34.6916E-03    -34.5512E-03     68.9108E-03    -34.3596E-03    -6.31405E-03     69.4269E-03     203.626E+06    -50.7985E+06    -56.0551E+06    -256.995E+06    -54.5513E+06    -256.919E+06    -52.3781E+06     3.03123E+06
            1039     19.2495E-03     16.0807E-03     10.5808E-03     160.342E-03    -56.5731E-03    -103.769E-03    -84.7219E-03     141.295E-03    -56.5731E-03     121.258E-03     398.379E-03     134.272E+06     129.379E+06     124.866E+06    -7.07195E+06    -7.02628E+06     127.539E+06     126.661E+06     1.41846E+06
            1040     18.3595E-03     15.1587E-03     10.3578E-03     161.712E-03    -54.7431E-03    -106.969E-03    -82.7950E-03     137.538E-03    -54.7431E-03     150.442E-03     403.802E-03     127.716E+06     123.346E+06     100.142E+06    -13.2210E+06    -13.0441E+06     123.169E+06     100.142E+06     3.90306E+06
            1041     17.5265E-03     14.2383E-03     10.2200E-03     140.951E-03    -52.6982E-03    -88.2530E-03    -80.6078E-03     133.306E-03    -52.6982E-03     76.2852E-03     299.266E-03     115.375E+06     110.101E+06     55.6457E+06    -21.3653E+06    -21.1809E+06     109.917E+06     55.6457E+06     3.85072E+06
            1042     16.7523E-03     13.3146E-03     10.1667E-03     129.934E-03    -50.5194E-03    -79.4144E-03    -78.1730E-03     128.692E-03    -50.5194E-03     29.9013E-03     239.986E-03     108.223E+06     94.5059E+06     15.3847E+06    -27.4253E+06    -27.3309E+06     94.4114E+06     15.3847E+06     3.09645E+06
            1043     16.0059E-03     12.3904E-03     10.1325E-03     124.170E-03    -48.3509E-03    -75.8195E-03    -75.6212E-03     123.972E-03    -48.3509E-03     7.04868E-03     203.321E-03     71.4908E+06     48.9288E+06    -9.94576E+06    -30.3331E+06    -30.1287E+06     48.7243E+06    -9.94576E+06     3.31844E+06
            1044     15.2930E-03     11.4630E-03     10.1231E-03     119.146E-03    -46.2456E-03    -72.9000E-03    -72.7057E-03     118.951E-03    -46.2456E-03    -9.84879E-03     177.164E-03     38.0181E+06     1.02826E+06    -23.3224E+06    -42.5658E+06    -31.8192E+06    -20.3452E+06    -12.6956E+06     5.01390E+06
            1045     14.6131E-03     10.5326E-03     10.1295E-03     113.508E-03    -44.1122E-03    -69.3961E-03    -68.7381E-03     112.850E-03    -44.1122E-03    -21.0857E-03     156.255E-03     60.1643E+06    -5.20022E+06    -29.6042E+06    -73.4388E+06    -31.4357E+06    -71.6073E+06    -5.20022E+06     7.80549E+06
            1046     13.9608E-03     9.59476E-03     10.1412E-03     107.118E-03    -41.9456E-03    -65.1724E-03    -63.9529E-03     105.899E-03    -41.9456E-03    -28.5920E-03     137.823E-03     94.9533E+06    -2.04217E+06    -28.6537E+06    -107.355E+06    -29.6021E+06    -106.407E+06    -2.04217E+06     7.01395E+06
            1047     13.3482E-03     8.65594E-03     10.1612E-03     100.196E-03    -39.8280E-03    -60.3677E-03    -58.6929E-03     98.5209E-03    -39.8280E-03    -32.4838E-03     122.218E-03     124.921E+06    -5.97845E+06    -29.8260E+06    -141.020E+06    -29.9830E+06    -140.863E+06    -5.97845E+06     3.45517E+06
            1048     12.7698E-03     7.70898E-03     10.1804E-03     93.1120E-03    -37.8451E-03    -55.2669E-03    -53.3004E-03     91.1454E-03    -37.8451E-03    -33.8437E-03     108.596E-03     149.260E+06    -10.4110E+06    -33.5505E+06    -169.881E+06    -33.5882E+06    -169.843E+06    -10.4110E+06     2.05938E+06
            1049     12.2370E-03     6.75818E-03     10.2015E-03     86.2412E-03    -36.0684E-03    -50.1728E-03    -48.1304E-03     84.1988E-03    -36.0684E-03    -33.0929E-03     96.8571E-03     171.109E+06    -8.53625E+06    -37.1434E+06    -192.115E+06    -37.3248E+06    -191.934E+06    -8.53625E+06     4.77898E+06
            1050     11.7513E-03     5.80239E-03     10.2189E-03     79.6279E-03    -34.4822E-03    -45.1457E-03    -43.2695E-03     77.7518E-03    -34.4822E-03    -30.3334E-03     86.6143E-03     183.485E+06    -10.3809E+06    -39.3296E+06    -206.539E+06    -39.8888E+06    -205.980E+06    -10.3809E+06     9.38275E+06
            1051     11.3215E-03     4.84144E-03     10.2342E-03     73.7617E-03    -33.1226E-03    -40.6391E-03    -39.1030E-03     72.2256E-03    -33.1226E-03    -26.2867E-03     78.1036E-03     191.077E+06    -17.0018E+06    -41.2442E+06    -218.994E+06     -41.909E+06    -218.329E+06    -17.0018E+06     10.7015E+06
            1052     10.9547E-03     3.87764E-03     10.2455E-03     68.9240E-03    -32.0122E-03    -36.9117E-03    -35.8065E-03     67.8187E-03    -32.0122E-03    -21.4269E-03     71.4198E-03     196.352E+06    -23.1235E+06    -43.0426E+06    -228.623E+06    -43.6423E+06    -228.024E+06    -23.1235E+06     10.1912E+06
            1053     10.6582E-03     2.91036E-03     10.2532E-03     65.0073E-03    -31.1412E-03    -33.8661E-03    -33.1801E-03     64.3213E-03    -31.1412E-03    -16.2798E-03     66.3354E-03     198.791E+06    -31.0845E+06    -43.8262E+06    -235.869E+06    -44.3873E+06    -235.308E+06    -31.0845E+06     9.97609E+06
            1054     10.4403E-03     1.94135E-03     10.2583E-03     62.3011E-03    -30.5382E-03    -31.7629E-03    -31.4147E-03     61.9529E-03    -30.5382E-03    -11.1701E-03     62.9818E-03     205.898E+06    -38.0626E+06    -45.2321E+06    -247.432E+06    -45.5050E+06    -247.159E+06    -38.0626E+06     6.84612E+06
            1055     10.3065E-03     971.419E-06     10.2606E-03     60.6663E-03    -30.0313E-03    -30.6350E-03    -30.5097E-03     60.5410E-03    -30.0313E-03    -6.34450E-03     61.0636E-03     204.902E+06    -43.3595E+06    -48.4150E+06    -250.741E+06    -46.8808E+06    -250.695E+06    -44.9390E+06     1.47513E+06
            1056     18.6395E-03     16.0797E-03     9.42716E-03     164.804E-03    -56.5720E-03    -108.232E-03    -89.2040E-03     145.776E-03    -56.5720E-03     120.675E-03     389.928E-03     132.619E+06     126.259E+06     123.254E+06    -7.83157E+06    -7.79223E+06     124.893E+06     124.581E+06    -303.625E+03
            1057     17.7422E-03     15.1658E-03     9.20772E-03     165.870E-03    -54.5299E-03    -111.340E-03    -86.7550E-03     141.285E-03    -54.5299E-03     154.221E-03     398.936E-03     127.350E+06     121.012E+06     102.353E+06    -13.7781E+06    -13.5350E+06     120.769E+06     102.353E+06     4.19063E+06
            1058     16.8918E-03     14.2440E-03     9.07971E-03     142.111E-03    -52.3356E-03    -89.7752E-03    -81.8456E-03     134.181E-03    -52.3356E-03     79.4042E-03     294.448E-03     115.485E+06     111.709E+06     61.6004E+06    -18.8675E+06    -18.4964E+06     111.338E+06     61.6004E+06     6.77695E+06
            1059     16.0912E-03     13.3230E-03     9.02356E-03     130.406E-03    -50.0697E-03    -80.3367E-03    -78.6698E-03     128.739E-03    -50.0697E-03     35.0994E-03     237.395E-03     107.109E+06     96.2213E+06     18.5526E+06    -24.5561E+06    -24.2765E+06     95.9417E+06     18.5526E+06     5.32493E+06
            1060     15.3222E-03     12.3995E-03     9.00127E-03     124.414E-03    -47.8335E-03    -76.5802E-03    -76.2315E-03     124.065E-03    -47.8335E-03     12.6927E-03     201.940E-03      70.839E+06     48.8762E+06    -8.30499E+06    -29.9144E+06    -29.2095E+06     48.1713E+06    -8.30499E+06     5.55226E+06
            1061     14.5771E-03     11.4696E-03     8.99673E-03     118.373E-03    -45.6717E-03    -72.7010E-03    -72.6156E-03     118.287E-03    -45.6717E-03    -3.73627E-03     176.249E-03     37.6434E+06     1.39873E+06    -23.6397E+06    -41.7592E+06    -32.3169E+06    -20.4411E+06    -11.2422E+06     5.13725E+06
            1062     13.8642E-03     10.5386E-03     9.00863E-03     112.830E-03    -43.4685E-03    -69.3618E-03    -69.0107E-03     112.479E-03    -43.4685E-03    -14.6157E-03     156.591E-03     57.5912E+06    -5.83727E+06    -32.1733E+06    -71.1834E+06    -32.8056E+06    -70.5511E+06    -5.83727E+06     2.18620E+06
            1063     13.1847E-03     9.60585E-03     9.03132E-03     106.257E-03    -41.2170E-03    -65.0398E-03    -64.2928E-03     105.510E-03    -41.2170E-03    -21.6953E-03     138.517E-03     93.7003E+06    -692.684E+03    -30.1901E+06    -105.472E+06    -30.3589E+06    -105.303E+06    -692.684E+03     1.65638E+06
            1064     12.5341E-03     8.66350E-03     9.05798E-03     99.0121E-03    -39.0121E-03    -59.9999E-03    -58.9394E-03     97.9515E-03    -39.0121E-03    -25.2069E-03     123.152E-03     127.341E+06     1.42791E+06    -30.1551E+06    -138.533E+06    -30.2534E+06    -138.435E+06     1.42791E+06     3.00441E+06
            1065     11.9235E-03     7.71913E-03     9.08766E-03     91.8102E-03    -36.8885E-03    -54.9217E-03    -53.6702E-03     90.5587E-03    -36.8885E-03    -26.3968E-03     109.507E-03     154.803E+06    -1.60398E+06    -32.6664E+06    -169.371E+06    -32.7312E+06    -169.306E+06    -1.60398E+06     2.86051E+06
            1066     11.3531E-03     6.76781E-03     9.11536E-03     84.6329E-03    -34.9159E-03    -49.7170E-03    -48.4032E-03     83.3191E-03    -34.9159E-03    -25.8829E-03     97.3252E-03     179.456E+06    -1.74535E+06    -36.2076E+06    -195.870E+06    -36.2973E+06    -195.780E+06    -1.74535E+06     3.23008E+06
            1067     10.8326E-03     5.81185E-03     9.14156E-03     77.6798E-03    -33.1146E-03    -44.5652E-03    -43.3439E-03     76.4585E-03    -33.1146E-03    -23.8728E-03     86.3963E-03     191.835E+06    -257.835E+03    -38.0512E+06    -208.158E+06    -38.2709E+06    -207.938E+06    -257.835E+03     4.83871E+06
            1068     10.3677E-03     4.85104E-03     9.16275E-03     71.3631E-03    -31.4863E-03    -39.8768E-03    -38.8624E-03     70.3487E-03    -31.4863E-03    -20.7645E-03     77.0037E-03     196.353E+06    -5.35247E+06    -38.4220E+06    -216.066E+06    -38.6866E+06    -215.802E+06    -5.35247E+06     5.68215E+06
            1069     9.96787E-03     3.88610E-03     9.17915E-03     65.8901E-03    -30.0811E-03    -35.8090E-03    -35.0495E-03     65.1306E-03    -30.0811E-03    -17.2496E-03     69.2483E-03     201.941E+06    -11.2723E+06    -38.9687E+06    -225.605E+06    -39.1481E+06    -225.425E+06    -11.2723E+06     4.79279E+06
            1070     9.64353E-03     2.91822E-03     9.19139E-03     61.2148E-03    -28.9100E-03    -32.3049E-03    -31.8077E-03     60.7177E-03    -28.9100E-03    -13.3484E-03     63.0817E-03     203.406E+06    -19.2472E+06    -39.6041E+06    -231.989E+06    -39.7590E+06    -231.834E+06    -19.2472E+06     4.10272E+06
            1071     9.40313E-03     1.94709E-03     9.19933E-03     57.6086E-03    -28.0201E-03    -29.5886E-03    -29.3392E-03     57.3592E-03    -28.0201E-03    -8.98447E-03     58.6644E-03     206.100E+06    -30.1662E+06    -40.1860E+06    -241.050E+06    -40.3008E+06    -240.935E+06    -30.1662E+06     3.59175E+06
            1072     9.25484E-03     973.962E-06     9.20345E-03     55.3469E-03    -27.4072E-03    -27.9397E-03    -27.8530E-03     55.2602E-03    -27.4072E-03    -5.05601E-03     55.8933E-03     205.348E+06    -38.7389E+06    -42.3302E+06    -245.851E+06    -42.3599E+06    -245.821E+06    -38.7389E+06     1.42838E+06
            1073     18.0811E-03     16.0761E-03     8.27557E-03     169.150E-03    -56.9788E-03    -112.172E-03    -92.7026E-03     149.681E-03    -56.9788E-03     124.250E-03     381.575E-03     134.378E+06     124.714E+06     122.151E+06    -10.9212E+06    -10.8829E+06     123.698E+06     123.129E+06     637.710E+03
            1074     17.1608E-03     15.1569E-03     8.04747E-03     168.147E-03    -54.8301E-03    -113.317E-03    -88.4761E-03     143.306E-03    -54.8301E-03     156.260E-03     391.264E-03     129.495E+06     115.591E+06     99.3067E+06    -20.6937E+06    -20.5941E+06     115.492E+06     99.3067E+06     1.13335E+06
            1075     16.3065E-03     14.2446E-03     7.93684E-03     142.745E-03    -52.6412E-03    -90.1036E-03    -81.4170E-03     134.058E-03    -52.6412E-03     85.5780E-03     289.177E-03     116.699E+06     107.896E+06     61.1334E+06    -23.3420E+06    -23.0688E+06     107.623E+06     61.1334E+06     4.42814E+06
            1076     15.4774E-03     13.3174E-03     7.88659E-03     131.196E-03    -50.4602E-03    -80.7362E-03    -77.9956E-03     128.456E-03    -50.4602E-03     45.0960E-03     234.101E-03     107.617E+06     95.7965E+06     22.3229E+06    -26.4479E+06    -25.7454E+06     95.0940E+06     22.3229E+06     8.68100E+06
            1077     14.6769E-03     12.3917E-03     7.86486E-03     123.858E-03    -48.3517E-03    -75.5064E-03    -74.8595E-03     123.211E-03    -48.3517E-03     20.7045E-03     199.673E-03     74.3007E+06     51.2728E+06    -364.144E+03    -32.1314E+06    -31.0425E+06      50.184E+06    -364.144E+03     8.65340E+06
            1078     13.9092E-03     11.4662E-03     7.87337E-03     117.238E-03    -46.3524E-03    -70.8852E-03    -70.6939E-03     117.046E-03    -46.3524E-03     7.62935E-03     176.022E-03     42.3362E+06     8.19491E+06    -18.8397E+06    -39.3290E+06    -33.2168E+06    -14.7253E+06    -2.03178E+06     3.01844E+06
            1079     13.1595E-03     10.5329E-03     7.88872E-03     111.191E-03    -44.3779E-03    -66.8128E-03    -66.6592E-03     111.037E-03    -44.3779E-03    -942.488E-06     157.312E-03     63.0682E+06     3.98604E+06    -32.8669E+06    -67.5304E+06    -33.3176E+06    -67.0798E+06     3.98604E+06    -2.48672E+06
            1080     12.4423E-03     9.59517E-03     7.92111E-03     105.243E-03    -42.3711E-03    -62.8717E-03    -62.6583E-03     105.029E-03    -42.3711E-03    -6.29542E-03     141.232E-03     102.099E+06     7.36010E+06    -34.2277E+06    -108.712E+06    -34.4314E+06    -108.508E+06     7.36010E+06    -2.74143E+06
            1081     11.7573E-03     8.65634E-03     7.95629E-03     99.0341E-03    -40.3574E-03    -58.6768E-03    -58.3579E-03     98.7152E-03    -40.3574E-03    -8.38130E-03     127.478E-03     134.069E+06     11.5911E+06    -34.5283E+06    -139.333E+06    -34.6196E+06    -139.242E+06     11.5911E+06    -682.788E+03
            1082     11.1060E-03     7.70996E-03     7.99374E-03     92.7765E-03    -38.3477E-03    -54.4287E-03    -54.0455E-03     92.3932E-03    -38.3477E-03    -9.46977E-03     114.758E-03     162.993E+06     11.9921E+06    -34.3979E+06    -168.989E+06    -34.5190E+06    -168.868E+06     11.9921E+06    -796.291E+03
            1083     10.4970E-03     6.76075E-03     8.02987E-03     86.5383E-03    -36.3647E-03    -50.1736E-03    -49.7760E-03     86.1406E-03    -36.3647E-03    -10.2764E-03     102.971E-03     188.831E+06     10.9197E+06    -33.2573E+06    -196.041E+06    -33.4064E+06    -195.891E+06     10.9197E+06    -2.19394E+06
            1084     9.93622E-03     5.80625E-03     8.06325E-03     80.2222E-03    -34.4445E-03    -45.7777E-03    -45.3910E-03     79.8355E-03    -34.4445E-03    -10.2404E-03     92.0302E-03     203.089E+06     12.8431E+06    -32.6683E+06    -209.121E+06    -32.8130E+06    -208.977E+06     12.8431E+06    -2.75531E+06
            1085     9.43222E-03     4.84771E-03     8.09114E-03     73.9490E-03    -32.5964E-03    -41.3526E-03    -41.0228E-03     73.6192E-03    -32.5964E-03    -9.62902E-03     81.8805E-03     206.971E+06     7.91585E+06    -33.2147E+06    -216.466E+06    -33.3365E+06    -216.345E+06     7.91585E+06    -2.11673E+06
            1086     8.99584E-03     3.88495E-03     8.11372E-03     67.9179E-03    -30.9093E-03    -37.0086E-03    -36.7420E-03     67.6513E-03    -30.9093E-03    -8.53789E-03     72.8575E-03     208.095E+06    -2.56331E+06    -34.3394E+06    -224.678E+06    -34.4184E+06    -224.599E+06    -2.56331E+06    -1.58818E+06
            1087     8.63873E-03     2.91762E-03     8.13113E-03     62.7206E-03    -29.4618E-03    -33.2588E-03    -33.0791E-03     62.5409E-03    -29.4618E-03    -6.87554E-03     65.6291E-03     207.192E+06    -14.6565E+06    -36.6882E+06    -231.922E+06    -36.7250E+06    -231.886E+06    -14.6565E+06    -1.59277E+06
            1088     8.37280E-03     1.94749E-03     8.14316E-03     58.4600E-03    -28.3217E-03    -30.1383E-03    -30.0424E-03     58.3641E-03    -28.3217E-03    -5.05730E-03     60.1576E-03     206.955E+06    -27.5091E+06    -39.0042E+06    -239.925E+06    -39.0256E+06    -239.904E+06    -27.5091E+06    -887.783E+03
            1089     8.20869E-03     974.131E-06     8.15068E-03     55.6650E-03    -27.5919E-03    -28.0732E-03    -28.0395E-03     55.6314E-03    -27.5919E-03    -2.75222E-03     56.7305E-03     205.579E+06    -36.1647E+06    -39.5133E+06    -243.378E+06    -39.4586E+06    -243.369E+06    -36.2282E+06     268.050E+03
            1090     17.5567E-03     16.0569E-03     7.10024E-03     171.115E-03    -57.9097E-03    -113.205E-03    -93.6954E-03     151.605E-03    -57.9097E-03     128.175E-03     370.386E-03     135.361E+06     126.309E+06     125.119E+06    -9.64271E+06    -9.47804E+06     125.275E+06     125.987E+06     4.00737E+06
            1091     16.6479E-03     15.1531E-03     6.89475E-03     167.848E-03    -55.8708E-03    -111.977E-03    -86.1030E-03     141.974E-03    -55.8708E-03     160.012E-03     383.173E-03     127.121E+06     115.213E+06     101.302E+06    -17.7072E+06    -17.5949E+06     114.889E+06     101.514E+06     2.15386E+06
            1092     15.7611E-03     14.2204E-03     6.79659E-03     144.327E-03    -53.8938E-03    -90.4327E-03    -79.4545E-03     133.348E-03    -53.8938E-03     96.4332E-03     285.293E-03     113.541E+06     100.610E+06     57.2390E+06    -26.8566E+06    -26.6472E+06     100.400E+06     57.2390E+06     3.70208E+06
            1093     14.9118E-03     13.3013E-03     6.74077E-03     131.404E-03    -52.0180E-03    -79.3862E-03    -75.1781E-03     127.196E-03    -52.0180E-03     56.8576E-03     229.950E-03     108.012E+06     90.4174E+06     26.4968E+06    -34.0198E+06    -33.2081E+06     89.6057E+06     26.4968E+06     9.17507E+06
            1094     14.0907E-03     12.3747E-03     6.73900E-03     121.585E-03    -50.3582E-03    -71.2272E-03    -69.2709E-03     119.629E-03    -50.3582E-03     36.0918E-03     197.035E-03     82.5040E+06     57.9617E+06     15.6277E+06    -35.8157E+06    -34.9923E+06     57.1382E+06     15.6277E+06     8.25711E+06
            1095     13.2787E-03     11.4377E-03     6.74560E-03     114.816E-03    -48.9305E-03    -65.8855E-03    -64.4413E-03     113.372E-03    -48.9305E-03     28.7300E-03     176.631E-03     54.3357E+06     19.3621E+06    -10.1609E+06    -40.9374E+06    -35.4660E+06    -7.22546E+06     10.9553E+06    -1.21249E+06
            1096     12.4987E-03     10.5023E-03     6.77638E-03     109.894E-03    -47.6315E-03    -62.2625E-03    -60.9838E-03     108.615E-03    -47.6315E-03     24.4575E-03     160.494E-03     73.7161E+06     15.2161E+06    -33.9107E+06    -68.6014E+06    -35.9717E+06    -66.5404E+06     15.2161E+06    -5.96205E+06
            1097     11.7388E-03     9.56192E-03     6.80955E-03     105.860E-03    -46.3142E-03    -59.5453E-03    -58.3298E-03     104.644E-03    -46.3142E-03     21.6272E-03     147.124E-03     113.148E+06     19.3901E+06    -35.0535E+06    -110.180E+06    -36.1089E+06    -109.125E+06     19.3901E+06    -7.93372E+06
            1098     11.0117E-03     8.61839E-03     6.85432E-03     102.793E-03    -44.8888E-03    -57.9037E-03    -56.7002E-03     101.589E-03    -44.8888E-03     21.0492E-03     136.792E-03     145.776E+06     22.2701E+06    -31.9676E+06    -142.770E+06    -33.3665E+06    -141.371E+06     22.2701E+06    -10.4761E+06
            1099     10.3175E-03     7.67440E-03     6.89593E-03     99.2900E-03    -43.3118E-03    -55.9782E-03    -55.0189E-03     98.3306E-03    -43.3118E-03     18.4990E-03     126.169E-03     177.009E+06     26.5581E+06    -27.8452E+06    -171.166E+06    -28.8577E+06    -170.154E+06     26.5581E+06    -10.3757E+06
            1100     9.66479E-03     6.72741E-03     6.93903E-03     94.9998E-03    -41.5542E-03    -53.4456E-03    -52.6624E-03     94.2166E-03    -41.5542E-03     15.5781E-03     115.740E-03     199.704E+06     23.1211E+06    -27.8044E+06    -197.075E+06    -28.4907E+06    -196.389E+06     23.1211E+06    -10.2222E+06
            1101     9.05990E-03     5.77795E-03     6.97833E-03     90.0670E-03    -39.6649E-03    -50.4021E-03    -49.8445E-03     89.5094E-03    -39.6649E-03     12.2797E-03     105.406E-03     209.627E+06     17.8969E+06    -29.7904E+06    -211.449E+06    -30.4249E+06    -210.814E+06     17.8969E+06    -10.2573E+06
            1102     8.51219E-03     4.82492E-03     7.01266E-03     84.1398E-03    -37.7286E-03    -46.4112E-03    -46.0364E-03     83.7650E-03    -37.7286E-03     8.97893E-03     94.8310E-03     211.546E+06     8.98321E+06    -31.8471E+06    -219.918E+06    -32.3926E+06    -219.373E+06     8.98321E+06    -9.60772E+06
            1103     8.03465E-03     3.86687E-03     7.04293E-03     78.1657E-03    -35.8690E-03    -42.2967E-03    -42.0668E-03     77.9357E-03    -35.8690E-03     6.19466E-03     85.0934E-03     209.748E+06    -5.17634E+06    -34.6098E+06    -228.022E+06    -35.0084E+06    -227.623E+06    -5.17634E+06    -8.10011E+06
            1104     7.63900E-03     2.90501E-03     7.06507E-03     72.5435E-03    -34.2127E-03    -38.3308E-03    -38.2224E-03     72.4351E-03    -34.2127E-03     3.51513E-03     76.8001E-03     208.435E+06    -18.6929E+06    -37.3716E+06    -235.779E+06    -37.5874E+06    -235.564E+06    -18.6929E+06    -6.06139E+06
            1105     7.34334E-03     1.93924E-03     7.08266E-03     67.8411E-03    -32.8696E-03    -34.9715E-03    -34.9242E-03     67.7938E-03    -32.8696E-03     1.58145E-03     70.4042E-03     208.302E+06    -28.7360E+06    -39.7352E+06    -242.300E+06    -39.8472E+06    -242.188E+06    -28.7360E+06    -4.31680E+06
            1106     7.15921E-03     970.900E-06     7.09307E-03     64.4770E-03    -31.8428E-03    -32.6342E-03    -32.6179E-03     64.4607E-03    -31.8428E-03     813.820E-06     66.1770E-03     206.646E+06    -37.2203E+06    -42.7990E+06    -246.577E+06    -42.7724E+06    -246.540E+06    -37.2838E+06    -2.15287E+06
            1107     17.1021E-03     16.0437E-03     5.92295E-03     173.190E-03    -59.5713E-03    -113.619E-03    -91.8632E-03     151.434E-03    -59.5713E-03     132.404E-03     356.577E-03     134.794E+06     126.587E+06     125.476E+06    -8.75808E+06    -8.36052E+06     125.570E+06     126.094E+06     6.77259E+06
            1108     16.1677E-03     15.1089E-03     5.75464E-03     168.576E-03    -57.8764E-03    -110.700E-03    -81.5638E-03     139.440E-03    -57.8764E-03     168.221E-03     374.768E-03     128.147E+06     114.381E+06     104.522E+06    -18.1067E+06    -17.7553E+06     113.818E+06     104.734E+06      6.2993E+06
            1109     15.2726E-03     14.1938E-03     5.63796E-03     144.639E-03    -56.3698E-03    -88.2696E-03    -74.7935E-03     131.163E-03    -56.3698E-03     106.947E-03     278.931E-03     115.405E+06     97.8104E+06     64.2756E+06    -29.2868E+06    -28.7843E+06     97.3078E+06     64.2756E+06     7.69752E+06
            1110     14.4016E-03     13.2621E-03     5.61460E-03     127.852E-03    -55.1231E-03    -72.7291E-03    -65.7088E-03     120.832E-03    -55.1231E-03     72.2485E-03     222.990E-03     107.414E+06     88.1848E+06     29.9203E+06    -34.7099E+06    -34.1074E+06     87.5823E+06     29.9203E+06     5.53607E+06
            1111     13.5371E-03     12.3223E-03     5.60481E-03     117.919E-03    -54.1393E-03    -63.7793E-03    -58.1071E-03     112.531E-03    -54.4244E-03     59.4178E-03     194.583E-03     85.8000E+06     63.3880E+06     22.6942E+06    -33.0489E+06    -32.6776E+06     63.0167E+06     22.6942E+06     1.79825E+06
            1112     12.7027E-03     11.3834E-03     5.63709E-03     114.012E-03    -53.8452E-03    -60.1669E-03    -54.1131E-03     108.243E-03    -54.1303E-03     59.2511E-03     177.673E-03     62.1559E+06     28.6798E+06    -1.09070E+06    -39.9315E+06    -32.3560E+06    -1.85655E+06     21.8701E+06    -3.89069E+06
            1113     11.8685E-03     10.4342E-03     5.65574E-03     112.355E-03    -53.3757E-03    -58.9789E-03    -53.0027E-03     106.955E-03    -53.9523E-03     57.1077E-03     164.517E-03     80.9860E+06     20.9355E+06    -29.7699E+06    -71.3673E+06    -34.1943E+06    -66.9430E+06     20.9355E+06    -11.4847E+06
            1114     11.0738E-03     9.49012E-03     5.70670E-03     112.234E-03    -53.1383E-03    -59.0959E-03    -53.3171E-03     107.032E-03    -53.7149E-03     56.4249E-03     155.406E-03     121.624E+06     26.6209E+06    -27.4823E+06    -112.030E+06    -32.0023E+06    -107.509E+06     26.6209E+06    -17.9822E+06
            1115     10.2941E-03     8.54412E-03     5.74156E-03     113.291E-03    -53.2421E-03    -60.0487E-03    -55.1423E-03     108.384E-03    -53.2421E-03     55.6038E-03     148.870E-03     156.550E+06     27.8248E+06    -24.8492E+06    -148.133E+06    -29.0789E+06    -143.904E+06     27.8248E+06    -22.0280E+06
            1116     9.55781E-03     7.60375E-03     5.79092E-03     113.192E-03    -52.4576E-03    -60.7346E-03    -56.6219E-03     109.080E-03    -52.4576E-03     51.1248E-03     141.645E-03     190.729E+06     31.9220E+06    -23.9452E+06    -180.481E+06    -27.1499E+06    -177.276E+06     31.9220E+06    -21.2927E+06
            1117     8.85545E-03     6.66123E-03     5.83498E-03     111.865E-03    -51.2873E-03    -60.5779E-03    -57.0987E-03     108.386E-03    -51.2873E-03     46.8757E-03     134.310E-03     210.618E+06     28.5623E+06    -24.3682E+06    -203.377E+06    -26.2480E+06    -201.497E+06     28.5623E+06    -17.6432E+06
            1118     8.20168E-03     5.71982E-03     5.87802E-03     108.819E-03    -49.7591E-03    -59.0594E-03    -56.4465E-03     106.206E-03    -49.7591E-03     40.0334E-03     125.917E-03     213.168E+06     14.9295E+06    -26.7208E+06    -215.895E+06    -28.0180E+06    -214.598E+06     14.9295E+06    -15.4966E+06
            1119     7.60589E-03     4.77485E-03     5.92033E-03     104.367E-03    -48.0300E-03    -56.3372E-03    -54.5142E-03     102.544E-03    -48.0300E-03     32.7529E-03     116.890E-03     212.669E+06     1.83041E+06    -30.9089E+06    -225.232E+06    -31.9604E+06    -224.181E+06     1.83041E+06    -14.1551E+06
            1120     7.07819E-03     3.82736E-03     5.95417E-03     98.9882E-03    -46.2421E-03    -52.7461E-03    -51.5853E-03     97.8274E-03    -46.2421E-03     25.2658E-03     107.353E-03     211.683E+06    -11.8451E+06    -35.8018E+06    -234.424E+06    -36.5683E+06    -233.658E+06    -11.8451E+06    -12.2157E+06
            1121     6.63979E-03     2.87610E-03     5.98456E-03     93.3781E-03    -44.5701E-03    -48.8080E-03    -48.1708E-03     92.7409E-03    -44.5701E-03     17.8485E-03     98.7309E-03     210.095E+06    -25.3620E+06    -39.5690E+06    -242.145E+06    -40.0109E+06    -241.703E+06    -25.3620E+06    -9.16076E+06
            1122     6.30577E-03     1.91999E-03     6.00636E-03     88.5210E-03    -43.2007E-03    -45.3203E-03    -45.0325E-03     88.2332E-03    -43.2007E-03     11.3765E-03     91.8958E-03     209.067E+06    -35.5054E+06    -42.8481E+06    -248.122E+06    -43.0381E+06    -247.932E+06    -35.5054E+06    -6.15469E+06
            1123     6.09700E-03     961.053E-06     6.02078E-03     85.1250E-03    -42.1877E-03    -42.9373E-03    -42.8471E-03     85.0348E-03    -42.1877E-03     6.04510E-03     87.3739E-03     207.570E+06    -42.9646E+06    -47.9261E+06    -252.954E+06    -46.9036E+06    -252.871E+06    -44.0704E+06    -3.91571E+06
            1124     16.6991E-03     15.9950E-03     4.79763E-03     177.261E-03    -62.4755E-03    -114.786E-03    -87.8595E-03     150.335E-03    -62.4755E-03     144.530E-03     348.512E-03     134.173E+06     125.695E+06     123.782E+06    -9.42340E+06    -8.63026E+06     123.482E+06     125.203E+06     9.37433E+06
            1125     15.7517E-03     15.0734E-03     4.57262E-03     175.568E-03    -61.2454E-03    -114.322E-03    -78.0666E-03     139.312E-03    -61.2454E-03     188.530E-03     367.795E-03     131.763E+06     114.191E+06     107.420E+06    -20.7507E+06    -19.7450E+06     112.714E+06     107.892E+06     11.0866E+06
            1126     14.8436E-03     14.1397E-03     4.51692E-03     143.087E-03    -60.3936E-03    -82.6931E-03    -65.9768E-03     126.370E-03    -60.3936E-03     117.376E-03     268.021E-03     118.499E+06     102.336E+06     76.1359E+06    -26.1481E+06    -25.4837E+06     101.671E+06     76.1359E+06     6.78181E+06
            1127     13.9321E-03     13.1949E-03     4.47218E-03     122.347E-03    -56.4967E-03    -65.8508E-03    -50.5765E-03     110.735E-03    -60.1584E-03     88.0895E-03     211.220E-03     105.642E+06     92.7876E+06     31.7802E+06    -25.8469E+06    -25.5453E+06     92.4860E+06     31.7802E+06     762.139E+03
            1128     13.0490E-03     12.2463E-03     4.50596E-03     117.026E-03    -55.1145E-03    -61.9111E-03    -44.5352E-03     105.340E-03    -60.8047E-03     85.0425E-03     188.357E-03     80.2088E+06     61.2256E+06     10.3567E+06    -27.8895E+06    -27.7454E+06     61.0815E+06     10.3567E+06    -2.25616E+06
            1129     12.1518E-03     11.2835E-03     4.51094E-03     118.091E-03    -55.9863E-03    -62.1045E-03    -45.0259E-03     106.949E-03    -61.9236E-03     84.7261E-03     174.461E-03     58.2653E+06     27.7748E+06    -1.12787E+06    -37.5902E+06    -29.5298E+06     1.06616E+06     17.5203E+06    -7.64869E+06
            1130     11.2953E-03     10.3370E-03     4.55304E-03     119.712E-03    -56.4801E-03    -63.2318E-03    -46.5137E-03     109.565E-03    -63.0508E-03     81.8483E-03     164.898E-03     80.4875E+06     17.7905E+06    -18.5697E+06    -72.9028E+06    -29.0415E+06    -62.4310E+06     17.7905E+06    -19.1135E+06
            1131     10.4435E-03     9.38382E-03     4.58371E-03     124.377E-03    -59.3684E-03    -65.0088E-03    -50.5985E-03     114.658E-03    -64.0592E-03     82.1532E-03     161.647E-03     123.106E+06     20.3966E+06    -20.1669E+06    -117.603E+06    -28.8169E+06    -108.953E+06     20.3966E+06    -27.3522E+06
            1132     9.62758E-03     8.44367E-03     4.62544E-03     128.339E-03    -61.7040E-03    -66.6354E-03    -54.8970E-03     119.677E-03    -64.7796E-03     79.5154E-03     158.606E-03     161.218E+06     22.1590E+06    -21.0114E+06    -155.954E+06    -28.0985E+06    -148.867E+06     22.1590E+06    -29.6534E+06
            1133     8.83372E-03     7.50046E-03     4.66666E-03     131.625E-03    -63.6529E-03    -67.9725E-03    -58.9246E-03     124.068E-03    -65.1431E-03     75.6769E-03     156.352E-03     197.622E+06     22.6801E+06    -23.3826E+06    -193.693E+06    -28.7613E+06    -188.314E+06     22.6801E+06    -29.4973E+06
            1134     8.08195E-03     6.56673E-03     4.71126E-03     133.774E-03    -64.5971E-03    -69.1769E-03    -62.3759E-03     127.417E-03    -65.0406E-03     70.4821E-03     153.624E-03     214.610E+06     18.0495E+06    -26.0835E+06    -214.953E+06    -29.6496E+06    -211.386E+06     18.0495E+06    -25.1950E+06
            1135     7.37103E-03     5.63131E-03     4.75609E-03     133.993E-03    -64.4491E-03    -69.5438E-03    -64.4489E-03     128.898E-03    -64.4491E-03     63.3457E-03     149.597E-03     213.697E+06     2.83318E+06    -28.7048E+06    -224.764E+06    -30.7872E+06    -222.682E+06     2.83318E+06    -19.7831E+06
            1136     6.71658E-03     4.69922E-03     4.79893E-03     132.645E-03    -63.5003E-03    -69.1448E-03    -65.4020E-03     128.902E-03    -63.5003E-03     54.1594E-03     144.566E-03     213.083E+06    -8.95841E+06    -32.7381E+06    -232.891E+06     -33.952E+06    -231.677E+06    -8.95841E+06    -15.3229E+06
            1137     6.13186E-03     3.76498E-03     4.83990E-03     129.338E-03    -62.3190E-03    -67.0192E-03    -64.5003E-03     126.819E-03    -62.3190E-03     43.8440E-03     137.738E-03     212.643E+06    -20.9304E+06    -37.5343E+06    -241.319E+06    -38.2453E+06    -240.608E+06    -20.9304E+06    -11.8378E+06
            1138     5.63462E-03     2.82703E-03     4.87410E-03     125.391E-03    -61.1276E-03    -64.2639E-03    -62.7694E-03     123.897E-03    -61.1276E-03     33.0897E-03     131.007E-03     211.711E+06    -34.5986E+06    -42.9736E+06    -250.329E+06    -43.0975E+06    -249.914E+06    -34.8901E+06    -8.96696E+06
            1139     5.25239E-03     1.88743E-03     4.90155E-03     121.860E-03    -60.1109E-03    -61.7493E-03    -61.0393E-03     121.150E-03    -60.1109E-03     22.1082E-03     125.453E-03     210.574E+06    -44.3698E+06    -47.0814E+06    -256.267E+06    -46.8815E+06    -256.105E+06    -44.7320E+06    -5.32607E+06
            1140     5.00906E-03     944.052E-06     4.91929E-03     119.263E-03    -59.3309E-03    -59.9325E-03    -59.5727E-03     119.036E-03    -59.4633E-03     11.8787E-03     121.724E-03     209.341E+06    -49.9436E+06    -51.3752E+06    -259.991E+06    -50.2513E+06    -259.938E+06    -51.1201E+06    -2.50450E+06
            1141     16.3212E-03     15.9193E-03     3.59990E-03     182.232E-03    -66.8487E-03    -115.383E-03    -83.7096E-03     150.558E-03    -66.8487E-03     170.683E-03     367.222E-03     133.013E+06     125.556E+06     121.918E+06    -9.21322E+06    -8.02737E+06     121.037E+06     125.251E+06     10.6058E+06
            1142     15.3753E-03     14.9864E-03     3.43641E-03     179.880E-03    -65.9840E-03    -113.896E-03    -78.9235E-03     144.908E-03    -65.9840E-03     185.680E-03     347.098E-03     130.460E+06     116.318E+06     110.865E+06    -16.7327E+06    -15.9265E+06     115.040E+06     111.337E+06     6.90214E+06
            1143     14.4513E-03     14.0572E-03     3.35202E-03     134.086E-03    -58.8507E-03    -75.2353E-03    -52.0706E-03     117.908E-03    -65.8376E-03     107.887E-03     236.175E-03     115.303E+06     108.167E+06     78.2330E+06    -16.9837E+06    -16.5346E+06     107.718E+06     78.2330E+06     2.79366E+06
            1144     13.5378E-03     13.1069E-03     3.38845E-03     119.810E-03    -52.6515E-03    -67.1585E-03    -37.3967E-03     104.283E-03    -66.8868E-03     98.2678E-03     191.438E-03     102.526E+06     92.3383E+06     25.0304E+06    -22.9662E+06    -22.7587E+06     92.1308E+06     25.0304E+06     2.43358E+06
            1145     12.5897E-03     12.1279E-03     3.37849E-03     121.547E-03    -52.8271E-03    -68.7196E-03    -38.1365E-03     106.856E-03    -68.7196E-03     96.5309E-03     175.369E-03     84.6062E+06     62.3014E+06    -7.98188E+06    -30.5461E+06    -27.5980E+06     61.9757E+06    -10.6043E+06    -1.55366E+06
            1146     11.6891E-03     11.1829E-03     3.40274E-03     123.745E-03    -52.8147E-03    -70.9299E-03    -40.6388E-03     111.569E-03    -70.9299E-03     89.2334E-03     164.575E-03     59.4864E+06     23.9252E+06    -16.8809E+06    -42.4314E+06    -28.4082E+06     5.19439E+06    -12.1733E+06    -13.5567E+06
            1147     10.7787E-03     10.2185E-03     3.42964E-03     129.290E-03    -56.0589E-03    -73.2308E-03    -44.9908E-03     118.222E-03    -73.2308E-03     87.5700E-03     161.753E-03     67.2576E+06     1.21845E+06    -20.8517E+06    -73.7470E+06    -27.2895E+06    -58.4460E+06    -7.64467E+06    -24.0344E+06
            1148     9.89711E-03     9.27441E-03     3.45514E-03     136.041E-03    -60.6127E-03    -75.4285E-03    -50.5330E-03     125.961E-03    -75.4285E-03     86.3096E-03     162.270E-03     111.937E+06    -1.11192E+06    -22.2747E+06    -121.667E+06    -27.6072E+06    -111.272E+06    -6.17410E+06    -30.9956E+06
            1149     9.02854E-03     8.32663E-03     3.49023E-03     142.514E-03    -65.0682E-03    -77.4457E-03    -56.1479E-03     133.594E-03    -77.4457E-03     83.8865E-03     163.838E-03     155.019E+06    -2.23812E+06    -23.9564E+06    -166.423E+06    -28.9532E+06    -157.513E+06    -6.15085E+06    -34.5611E+06
            1150     8.18862E-03     7.39171E-03     3.52365E-03     149.115E-03    -69.8972E-03    -79.2174E-03    -62.0047E-03     141.222E-03    -79.2174E-03     81.2531E-03     166.558E-03     193.090E+06    -2.94887E+06    -25.6745E+06    -206.064E+06    -29.6272E+06    -199.641E+06    -5.42002E+06    -33.3456E+06
            1151     7.37503E-03     6.45691E-03     3.56362E-03     154.876E-03    -73.9820E-03    -80.8939E-03    -67.5256E-03     148.167E-03    -80.6414E-03     76.9422E-03     169.153E-03     214.767E+06    -5.05268E+06    -27.0559E+06    -229.624E+06    -31.3629E+06    -225.317E+06    -5.05268E+06    -28.9282E+06
            1152     6.60116E-03     5.53069E-03     3.60371E-03     159.626E-03    -77.0303E-03    -82.5957E-03    -72.4516E-03     154.052E-03    -81.6004E-03     71.5637E-03     171.121E-03     214.201E+06    -16.4350E+06    -31.9058E+06    -237.741E+06    -33.9462E+06    -235.311E+06    -16.8241E+06    -21.9041E+06
            1153     5.87370E-03     4.60605E-03     3.64481E-03     162.731E-03    -78.9165E-03    -83.8146E-03    -76.2420E-03     158.430E-03    -82.1876E-03     63.7369E-03     171.757E-03     213.629E+06    -25.3452E+06    -36.8046E+06    -244.341E+06    -37.5276E+06    -243.229E+06    -25.7343E+06    -14.6394E+06
            1154     5.21221E-03     3.68487E-03     3.68631E-03     164.565E-03    -80.5948E-03    -83.9706E-03    -79.0979E-03     161.524E-03    -82.4260E-03     54.0194E-03     171.436E-03     213.185E+06    -32.4532E+06    -41.2070E+06    -249.842E+06    -41.5962E+06    -249.453E+06    -32.4532E+06    -8.21700E+06
            1155     4.63734E-03     2.76469E-03     3.72308E-03     165.013E-03    -81.5816E-03    -83.4314E-03    -80.7736E-03     163.144E-03    -82.3703E-03     42.2367E-03     170.007E-03     212.642E+06    -41.9202E+06    -46.8035E+06    -256.950E+06    -46.6729E+06    -256.789E+06    -42.2117E+06    -4.73516E+06
            1156     4.17978E-03     1.84298E-03     3.75153E-03     164.622E-03    -81.8201E-03    -82.8021E-03    -81.5350E-03     163.719E-03    -82.1840E-03     28.9613E-03     168.042E-03     212.095E+06    -49.1692E+06    -52.3426E+06    -262.821E+06    -52.0471E+06    -262.755E+06    -49.5315E+06    -2.57036E+06
            1157     3.88241E-03     922.498E-06     3.77122E-03     164.069E-03    -81.6613E-03    -82.4074E-03    -81.8760E-03     163.773E-03    -81.8973E-03     15.6723E-03     166.545E-03     211.536E+06    -53.4595E+06    -55.8243E+06    -266.156E+06    -55.1441E+06    -266.142E+06    -54.1541E+06    -1.28104E+06
            1158     15.9993E-03     15.8149E-03     2.42215E-03     188.261E-03    -71.4558E-03    -116.805E-03    -88.8311E-03     160.287E-03    -71.4558E-03     171.555E-03     376.354E-03     135.807E+06     129.809E+06     124.364E+06    -8.61397E+06    -7.77479E+06     123.830E+06     129.504E+06     5.26639E+06
            1159     15.0925E-03     14.9275E-03     2.22563E-03     160.174E-03    -60.6061E-03    -99.5677E-03    -69.3536E-03     140.295E-03    -70.9414E-03     129.566E-03     279.888E-03     121.477E+06     120.245E+06     108.903E+06    -6.01278E+06    -5.65699E+06     118.046E+06     110.746E+06     3.99258E+06
            1160     14.1642E-03     13.9797E-03     2.27892E-03     122.469E-03    -49.8524E-03    -72.6170E-03    -37.5761E-03     109.428E-03    -71.8524E-03     89.8988E-03     190.948E-03     108.316E+06     105.498E+06     69.0075E+06    -14.5466E+06    -13.9229E+06     104.875E+06     69.0075E+06     6.10545E+06
            1161     13.1793E-03     12.9847E-03     2.25673E-03     124.109E-03    -50.1625E-03    -73.9461E-03    -36.7144E-03     110.661E-03    -73.9461E-03     91.3539E-03     171.871E-03     102.887E+06     93.6641E+06     23.7209E+06    -22.0523E+06    -21.6226E+06     93.2344E+06     23.7209E+06     5.62435E+06
            1162     12.2599E-03     12.0490E-03     2.26425E-03     125.410E-03    -49.0769E-03    -76.3328E-03    -38.9351E-03     115.268E-03    -76.3328E-03     80.1215E-03     159.756E-03     98.0234E+06     69.8310E+06    -10.9748E+06    -38.0718E+06    -22.8048E+06     69.4824E+06    -25.8933E+06    -2.52805E+06
            1163     11.3031E-03     11.0708E-03     2.27988E-03     128.842E-03    -49.7193E-03    -79.1228E-03    -41.4091E-03     120.532E-03    -79.1228E-03     73.7839E-03     154.745E-03     75.7266E+06     23.2732E+06    -27.5851E+06    -61.5400E+06    -23.5322E+06     12.4830E+06    -54.8027E+06    -12.9895E+06
            1164     10.3829E-03     10.1266E-03     2.29266E-03     136.324E-03    -54.0725E-03    -82.2519E-03    -46.7363E-03     128.988E-03    -82.2519E-03     71.5579E-03     156.534E-03     65.5780E+06    -10.1772E+06    -42.0084E+06    -84.0778E+06    -24.7463E+06    -57.2095E+06    -54.3075E+06    -23.9362E+06
            1165     9.45946E-03     9.17149E-03     2.31627E-03     144.009E-03    -58.5614E-03    -85.4473E-03    -52.1548E-03     137.602E-03    -85.4473E-03     69.4627E-03     159.961E-03     99.9018E+06    -14.9700E+06    -50.0809E+06    -124.077E+06    -24.6928E+06    -114.354E+06    -50.0809E+06    -30.2004E+06
            1166     8.55535E-03     8.23043E-03     2.33536E-03     152.571E-03    -63.8970E-03    -88.6741E-03    -58.1642E-03     146.838E-03    -88.6741E-03     67.9249E-03     165.343E-03     144.388E+06    -19.6958E+06    -47.3725E+06    -174.046E+06    -27.0023E+06    -166.739E+06    -47.3725E+06    -32.1003E+06
            1167     7.66370E-03     7.29020E-03     2.36334E-03     161.763E-03    -69.8998E-03    -91.8630E-03    -64.8177E-03     156.681E-03    -91.8630E-03     66.3751E-03     171.955E-03     183.314E+06    -24.1522E+06    -47.8840E+06    -217.703E+06    -31.6747E+06    -212.405E+06    -45.6598E+06    -30.7120E+06
            1168     6.79494E-03     6.36048E-03     2.39071E-03     171.251E-03    -76.3217E-03    -94.9289E-03    -71.8737E-03     166.803E-03    -94.9289E-03     64.2552E-03     179.540E-03     207.916E+06    -28.3008E+06    -44.7654E+06    -243.576E+06    -35.9512E+06    -240.261E+06    -40.4295E+06    -25.7540E+06
            1169     5.95064E-03     5.43532E-03     2.42230E-03     180.331E-03    -82.5674E-03    -97.7641E-03    -78.8393E-03     176.603E-03    -97.7641E-03     60.7373E-03     187.200E-03     213.930E+06    -35.8678E+06    -40.7463E+06    -252.167E+06    -39.7116E+06    -250.435E+06    -38.6347E+06    -18.3275E+06
            1170     5.14231E-03     4.51769E-03     2.45638E-03     189.059E-03    -88.7547E-03    -100.304E-03    -85.7785E-03     186.082E-03    -100.304E-03     55.7665E-03     194.702E-03     213.815E+06    -41.4810E+06    -43.8911E+06    -256.486E+06    -43.3765E+06    -255.823E+06    -42.6579E+06    -10.9109E+06
            1171     4.38133E-03     3.60528E-03     2.48958E-03     197.237E-03    -94.7701E-03    -102.467E-03    -92.6043E-03     195.071E-03    -102.467E-03     48.6797E-03     201.808E-03     213.536E+06    -44.0857E+06    -48.3508E+06    -259.721E+06    -47.7841E+06    -259.558E+06    -44.8148E+06    -5.10914E+06
            1172     3.69366E-03     2.69977E-03     2.52079E-03     203.932E-03    -99.8080E-03    -104.124E-03    -98.4349E-03     202.559E-03    -104.124E-03     39.4234E-03     207.577E-03     213.365E+06    -45.3549E+06    -51.0409E+06    -261.500E+06    -51.0630E+06    -261.478E+06    -45.3549E+06    -800.317E+03
            1173     3.11891E-03     1.79881E-03     2.54792E-03     208.555E-03    -103.320E-03    -105.235E-03    -102.628E-03     207.863E-03    -105.235E-03     28.0767E-03     211.429E-03     213.135E+06    -48.3537E+06    -54.6713E+06    -264.573E+06    -54.6801E+06    -264.564E+06    -48.3537E+06     389.431E+03
            1174     2.71702E-03     898.054E-06     2.56431E-03     211.194E-03    -105.174E-03    -106.020E-03    -105.236E-03     210.963E-03    -105.728E-03     15.4600E-03     213.585E-03     212.393E+06    -53.9634E+06    -58.5408E+06    -268.604E+06    -57.9356E+06    -268.586E+06    -54.5874E+06    -250.874E+03
            1175     15.8378E-03     15.7985E-03     1.11495E-03     195.860E-03    -71.5112E-03    -124.348E-03    -97.4475E-03     173.298E-03    -75.8501E-03     159.662E-03     316.417E-03     130.538E+06     133.180E+06     126.553E+06    -500.594E+03    -252.214E+03     126.863E+06     132.620E+06     1.01202E+06
            1176     14.9117E-03     14.8663E-03     1.16226E-03     141.702E-03    -57.8389E-03    -83.8634E-03    -56.3598E-03     132.040E-03    -75.6804E-03     85.3230E-03     212.098E-03     116.091E+06     116.244E+06     101.570E+06    -6.00239E+06    -5.13446E+06     113.534E+06     103.413E+06     8.01985E+06
            1177     13.9063E-03     13.8595E-03     1.14022E-03     128.132E-03    -51.0188E-03    -77.1134E-03    -42.9588E-03     120.072E-03    -77.1134E-03     67.8648E-03     170.588E-03     106.766E+06     106.284E+06     64.5858E+06    -13.4172E+06    -12.3700E+06     105.237E+06     64.5858E+06     8.81169E+06
            1178     12.9926E-03     12.9431E-03     1.13340E-03     128.049E-03    -48.7906E-03    -79.2589E-03    -43.1153E-03     122.374E-03    -79.2589E-03     55.7778E-03     158.253E-03     103.053E+06     100.389E+06     24.3911E+06    -13.2770E+06    -12.9798E+06     100.092E+06     24.3911E+06     2.81429E+06
            1179     12.0094E-03     11.9555E-03     1.13718E-03     127.476E-03    -45.6874E-03    -81.7881E-03    -41.8806E-03     123.669E-03    -81.7881E-03     45.7249E-03     149.549E-03     101.368E+06      73.602E+06    -6.85470E+06    -38.1981E+06    -12.6999E+06     73.4750E+06    -32.2259E+06    -658.785E+03
            1180     11.0772E-03     11.0182E-03     1.14205E-03     132.771E-03    -47.9523E-03    -84.8186E-03    -44.8445E-03     129.663E-03    -84.8186E-03     41.7726E-03     149.316E-03     93.6418E+06     25.5598E+06    -19.5480E+06    -79.9845E+06    -13.8824E+06     19.8942E+06    -79.9845E+06    -6.78896E+06
            1181     10.1186E-03     10.0528E-03     1.15161E-03     139.718E-03    -51.3850E-03    -88.3327E-03    -48.8421E-03     137.175E-03    -88.3327E-03     39.5507E-03     152.232E-03     86.9629E+06    -7.57586E+06    -54.1709E+06    -104.228E+06    -16.5777E+06    -52.9062E+06    -96.4905E+06    -16.0442E+06
            1182     9.18227E-03     9.10884E-03     1.15897E-03     148.394E-03    -56.2067E-03    -92.1870E-03    -53.9361E-03     146.123E-03    -92.1870E-03     38.1479E-03     157.831E-03     101.967E+06    -16.2331E+06    -88.0642E+06    -132.016E+06    -21.3435E+06    -119.651E+06    -95.3186E+06    -20.5251E+06
            1183     8.24578E-03     8.16193E-03     1.17290E-03     158.072E-03    -61.7853E-03    -96.2870E-03    -59.8008E-03     156.088E-03    -96.2870E-03     37.3692E-03     165.192E-03     136.448E+06    -24.1504E+06    -86.5597E+06    -178.154E+06    -27.2250E+06    -175.079E+06    -86.5597E+06    -19.4721E+06
            1184     7.32123E-03     7.22471E-03     1.18491E-03     169.011E-03    -68.4558E-03    -100.555E-03    -66.6674E-03     167.223E-03    -100.555E-03     36.9065E-03     174.355E-03     174.166E+06    -32.1146E+06    -78.7095E+06    -224.183E+06    -34.3312E+06    -221.966E+06    -78.7095E+06    -18.3327E+06
            1185     6.40597E-03     6.29253E-03     1.20020E-03     180.990E-03    -76.0705E-03    -104.920E-03    -74.4956E-03     179.415E-03    -104.920E-03     36.0119E-03     185.059E-03     201.489E+06    -40.0361E+06    -69.3041E+06    -254.137E+06    -41.4665E+06    -252.707E+06    -69.3041E+06    -15.5857E+06
            1186     5.50568E-03     5.36923E-03     1.21816E-03     193.762E-03    -84.4822E-03    -109.280E-03    -83.1441E-03     192.424E-03    -109.280E-03     34.4154E-03     197.140E-03     213.207E+06    -46.4234E+06    -57.4469E+06    -264.785E+06    -47.0741E+06    -264.135E+06    -57.4469E+06    -10.1504E+06
            1187     4.62234E-03     4.45380E-03     1.23679E-03     207.131E-03    -93.6902E-03    -113.441E-03    -92.6065E-03     206.047E-03    -113.441E-03     32.2101E-03     210.050E-03     213.186E+06    -50.2468E+06    -53.6422E+06    -265.088E+06    -50.4188E+06    -264.916E+06    -53.6422E+06    -5.21015E+06
            1188     3.76466E-03     3.54912E-03     1.25557E-03     220.163E-03    -102.896E-03    -117.267E-03    -102.098E-03     219.365E-03    -117.267E-03     28.6642E-03     222.702E-03     213.076E+06    -51.2965E+06    -53.9968E+06    -265.707E+06    -52.3823E+06    -265.658E+06    -52.9607E+06    -2.42569E+06
            1189     2.94181E-03     2.65149E-03     1.27432E-03     232.122E-03    -111.542E-03    -120.581E-03    -111.019E-03     231.600E-03    -120.581E-03     23.7985E-03     234.365E-03     213.239E+06    -50.3415E+06    -55.2269E+06    -265.971E+06    -53.6231E+06    -265.952E+06    -51.9648E+06    -613.635E+03
            1190     2.18342E-03     1.76215E-03     1.28925E-03     241.925E-03    -118.760E-03    -123.165E-03    -118.479E-03     241.644E-03    -123.165E-03     17.4796E-03     243.996E-03     213.280E+06    -49.7918E+06    -54.6499E+06    -265.447E+06    -53.7076E+06    -265.435E+06    -50.7464E+06     420.515E+03
            1191     1.57215E-03     880.543E-06     1.30242E-03     248.446E-03    -123.438E-03    -125.009E-03    -123.648E-03     248.350E-03    -124.702E-03     10.0534E-03     250.491E-03     212.421E+06    -52.0693E+06    -55.1259E+06    -265.998E+06    -54.7731E+06    -265.991E+06    -52.4294E+06     939.433E+03
            1192     62.7787E-03     943.306E-06     62.7716E-03     116.391E-03    -57.9415E-03    -58.4490E-03    -58.3768E-03     116.390E-03    -58.0130E-03     692.830E-06     117.381E-03     210.961E+06    -69.5512E+06    -72.3667E+06    -281.901E+06    -72.4005E+06    -281.852E+06    -69.5664E+06     1.49172E+06
            1193     62.8024E-03     1.88737E-03     62.7741E-03     116.331E-03    -57.9976E-03    -58.3332E-03    -58.1084E-03     116.329E-03    -58.2209E-03     983.502E-06     118.376E-03     212.919E+06    -61.9399E+06    -68.7750E+06    -278.171E+06    -68.7986E+06    -278.147E+06    -61.9399E+06     1.53311E+06
            1194     62.8389E-03     2.83149E-03     62.7751E-03     116.314E-03    -58.0096E-03    -58.3040E-03    -58.0696E-03     116.308E-03    -58.2379E-03     1.92618E-03     120.058E-03     214.033E+06    -51.3528E+06    -64.9695E+06    -271.827E+06    -64.9864E+06    -271.810E+06    -51.3528E+06     1.75163E+06
            1195     62.8907E-03     3.77462E-03     62.7774E-03     116.285E-03    -58.0124E-03    -58.2722E-03    -58.0125E-03     116.271E-03    -58.2589E-03     2.99347E-03     122.695E-03     214.705E+06    -40.2644E+06    -60.3482E+06    -264.291E+06    -60.3673E+06    -264.272E+06    -40.2644E+06     1.85541E+06
            1196     62.9574E-03     4.71977E-03     62.7802E-03     116.290E-03    -57.9567E-03    -58.3335E-03    -57.9971E-03     116.261E-03    -58.2638E-03     4.38304E-03     126.355E-03     206.328E+06    -30.7953E+06    -55.7934E+06    -248.457E+06    -55.8127E+06    -248.437E+06    -30.7953E+06     1.82928E+06
            1197     63.0419E-03     5.66286E-03     62.7870E-03     116.362E-03    -58.0006E-03    -58.3611E-03    -58.0371E-03     116.307E-03    -58.2702E-03     6.08150E-03     131.118E-03     195.782E+06    -23.4626E+06    -51.8166E+06    -231.857E+06    -51.8254E+06    -231.848E+06    -23.4626E+06     856.122E+03
            1198     63.1383E-03     6.60553E-03     62.7918E-03     115.919E-03    -57.6436E-03    -58.2757E-03    -57.5776E-03     115.819E-03    -58.2411E-03     8.19201E-03     136.530E-03     185.180E+06    -18.2920E+06    -45.7403E+06    -215.644E+06    -45.8023E+06    -215.582E+06    -18.2920E+06    -801.500E+03
            1199     63.2565E-03     7.55132E-03     62.8042E-03     115.475E-03    -57.3255E-03    -58.1497E-03    -57.1653E-03     115.315E-03    -58.1497E-03     10.4760E-03     143.101E-03     162.362E+06    -12.4365E+06    -38.3495E+06    -186.149E+06    -38.4132E+06    -186.086E+06    -12.4365E+06    -923.747E+03
            1200     63.3852E-03     8.49616E-03     62.8132E-03     115.633E-03    -57.5721E-03    -58.0613E-03    -57.3174E-03     115.370E-03    -58.0530E-03     13.3392E-03     151.929E-03     130.528E+06    -7.51297E+06    -33.5270E+06    -149.016E+06    -33.5500E+06    -148.993E+06    -7.51297E+06     613.203E+03
            1201     63.5366E-03     9.43969E-03     62.8314E-03     115.511E-03    -57.5410E-03    -57.9700E-03    -57.0465E-03     115.008E-03    -57.9617E-03     18.3607E-03     163.055E-03     95.2789E+06    -5.33064E+06    -30.6866E+06    -110.633E+06    -30.7132E+06    -110.607E+06    -5.33064E+06     658.357E+03
            1202     63.7053E-03     10.3859E-03     62.8529E-03     115.520E-03    -57.4838E-03    -58.0365E-03    -56.9110E-03     114.781E-03    -57.8699E-03     22.5434E-03     176.703E-03     59.6578E+06    -4.26718E+06    -29.6348E+06    -71.7069E+06    -30.4607E+06    -70.8810E+06    -4.26718E+06     1.32971E+06
            1203     63.8902E-03     11.3287E-03     62.8778E-03     115.725E-03    -57.6731E-03    -58.0518E-03    -56.8765E-03     114.637E-03    -57.7602E-03     27.1759E-03     194.154E-03     42.9579E+06     6.89266E+06    -19.5307E+06    -42.5405E+06    -32.3304E+06    -16.2778E+06    -6.57027E+06     2.71785E+06
            1204     64.0978E-03     12.2739E-03     62.9116E-03     116.420E-03    -57.6741E-03    -58.7456E-03    -56.3645E-03     114.039E-03    -57.6741E-03     39.5867E-03     218.633E-03     80.0604E+06     60.3669E+06     1.95410E+06    -30.4612E+06    -30.3794E+06     60.2851E+06     1.95410E+06     1.74150E+06
            1205     64.3373E-03     13.2189E-03     62.9647E-03     118.607E-03    -57.7176E-03    -60.8892E-03    -56.2208E-03     113.938E-03    -57.7176E-03     56.6236E-03     257.098E-03     116.165E+06     105.872E+06     26.2216E+06    -26.6530E+06    -26.6478E+06     105.867E+06     26.2216E+06     531.994E+03
            1206     64.6094E-03     14.1633E-03     63.0379E-03     128.548E-03    -57.8721E-03    -70.6755E-03    -56.9496E-03     114.822E-03    -57.8721E-03     97.0578E-03     317.583E-03     119.001E+06     113.798E+06     57.7246E+06    -21.9709E+06    -21.9629E+06     113.790E+06     57.7246E+06     673.641E+03
            1207     64.9634E-03     15.1078E-03     63.1822E-03     145.382E-03    -58.0464E-03    -87.3360E-03    -57.0303E-03     115.077E-03    -58.0464E-03     155.344E-03     427.069E-03     127.294E+06     121.511E+06     95.4079E+06    -15.8169E+06    -15.8092E+06     121.503E+06     95.4079E+06     599.414E+03
            1208     65.3847E-03     16.0532E-03     63.3834E-03     136.942E-03    -58.1111E-03    -78.8307E-03    -55.6435E-03     113.755E-03    -58.1111E-03     126.320E-03     429.332E-03     134.561E+06     130.605E+06     122.310E+06    -7.90408E+06    -7.89694E+06     130.597E+06     122.310E+06    -143.231E+03
            1209     63.9024E-03     943.519E-06     63.8954E-03     116.658E-03    -58.1372E-03    -58.5211E-03    -58.4081E-03     116.655E-03    -58.2467E-03     1.27383E-03     117.625E-03     210.093E+06    -70.6619E+06    -73.3535E+06    -282.084E+06    -72.5546E+06    -282.050E+06    -71.4944E+06     1.51962E+06
            1210     63.9230E-03     1.88701E-03     63.8951E-03     116.227E-03    -57.9425E-03    -58.2843E-03    -57.9401E-03     116.224E-03    -58.2843E-03     1.14702E-03     118.294E-03     212.172E+06    -65.0734E+06    -70.2774E+06    -279.795E+06    -70.2883E+06    -279.784E+06    -65.0734E+06     241.486E+03
            1211     63.9598E-03     2.83140E-03     63.8971E-03     116.084E-03    -57.8748E-03    -58.2092E-03    -57.8686E-03     116.078E-03    -58.2092E-03     1.98282E-03     119.859E-03     213.750E+06    -53.7902E+06    -64.8413E+06    -272.805E+06    -64.8579E+06    -272.788E+06    -53.7902E+06     1.13983E+06
            1212     64.0108E-03     3.77600E-03     63.8993E-03     116.293E-03    -58.0643E-03    -58.2288E-03    -58.0648E-03     116.280E-03    -58.2154E-03     2.90578E-03     122.735E-03     214.756E+06    -41.2484E+06    -59.8651E+06    -264.675E+06    -59.8822E+06    -264.658E+06    -41.2484E+06     1.74261E+06
            1213     64.0770E-03     4.71806E-03     63.9030E-03     116.187E-03    -57.9410E-03    -58.2457E-03    -57.9240E-03     116.156E-03    -58.2323E-03     4.45489E-03     126.290E-03     208.031E+06    -30.3699E+06    -54.1113E+06    -249.229E+06    -54.1255E+06    -249.215E+06    -30.3699E+06     1.45402E+06
            1214     64.1583E-03     5.66326E-03     63.9079E-03     115.997E-03    -57.7473E-03    -58.2498E-03    -57.7185E-03     115.934E-03    -58.2152E-03     6.53420E-03     130.691E-03     197.153E+06    -20.6962E+06    -47.6843E+06    -229.928E+06    -47.6932E+06    -229.919E+06    -20.6962E+06     134.707E+03
            1215     64.2567E-03     6.60770E-03     63.9161E-03     115.948E-03    -57.6846E-03    -58.2633E-03    -57.6620E-03     115.846E-03    -58.1836E-03     8.35791E-03     136.499E-03     185.552E+06    -14.0094E+06    -43.5788E+06    -212.494E+06    -43.6352E+06    -212.437E+06    -14.0094E+06    -1.78903E+06
            1216     64.3668E-03     7.55156E-03     63.9223E-03     115.728E-03    -57.5587E-03    -58.1696E-03    -57.4416E-03     115.566E-03    -58.1245E-03     10.4779E-03     143.451E-03     163.594E+06    -10.7551E+06    -41.1110E+06    -187.335E+06    -41.2125E+06    -187.233E+06    -10.7551E+06    -2.58187E+06
            1217     64.4999E-03     8.49584E-03     63.9379E-03     115.555E-03    -57.5062E-03    -58.0490E-03    -57.2499E-03     115.291E-03    -58.0407E-03     13.4296E-03     151.921E-03     131.316E+06    -7.29163E+06    -36.7203E+06    -150.781E+06    -36.7728E+06    -150.729E+06    -7.29163E+06    -1.38017E+06
            1218     64.6445E-03     9.44022E-03     63.9515E-03     115.596E-03    -57.4347E-03    -58.1610E-03    -57.1610E-03     115.126E-03    -57.9650E-03     17.7975E-03     163.276E-03     98.7331E+06    -3.46260E+06    -33.5280E+06    -113.546E+06    -33.8516E+06    -113.222E+06    -3.46260E+06     2.23093E+06
            1219     64.8116E-03     10.3848E-03     63.9742E-03     115.638E-03    -57.3886E-03    -58.2492E-03    -57.0294E-03     114.924E-03    -57.8950E-03     22.1391E-03     176.950E-03     64.9330E+06    -744.947E+03    -32.0923E+06    -74.4992E+06    -33.3807E+06    -73.2107E+06    -744.947E+03     5.23439E+06
            1220     64.9969E-03     11.3297E-03     64.0019E-03     115.826E-03    -57.5633E-03    -58.2626E-03    -56.9805E-03     114.762E-03    -57.7814E-03     26.9275E-03     194.333E-03     44.9318E+06     11.5525E+06    -18.7876E+06    -40.0510E+06    -30.8361E+06    -13.4293E+06    -3.02070E+06     3.14877E+06
            1221     65.1974E-03     12.2735E-03     64.0318E-03     116.825E-03    -57.6971E-03    -59.1283E-03    -56.7111E-03     114.408E-03    -57.6971E-03     39.8309E-03     219.402E-03     77.7428E+06     61.0144E+06     2.75292E+06    -26.9175E+06    -26.8993E+06     60.9962E+06     2.75292E+06     856.083E+03
            1222     65.4379E-03     13.2180E-03     64.0891E-03     118.928E-03    -57.7442E-03    -61.1838E-03    -56.2768E-03     114.021E-03    -57.7442E-03     58.0527E-03     257.686E-03     113.482E+06     105.356E+06     25.0867E+06    -23.8238E+06    -23.8174E+06     105.350E+06     25.0867E+06     348.890E+03
            1223     65.7032E-03     14.1627E-03     64.1586E-03     128.290E-03    -57.8819E-03    -70.4080E-03    -56.4685E-03     114.350E-03    -57.8819E-03     97.8591E-03     318.098E-03     117.913E+06     113.416E+06     56.3385E+06    -20.9329E+06    -20.9234E+06     113.407E+06     56.3385E+06     597.214E+03
            1224     66.0555E-03     15.1102E-03     64.3040E-03     144.786E-03    -58.0256E-03    -86.7600E-03    -56.2440E-03     114.270E-03    -58.0256E-03     155.335E-03     426.798E-03     126.666E+06     122.047E+06     96.5554E+06    -14.5314E+06    -14.5205E+06     122.036E+06     96.5554E+06     1.12025E+06
            1225     66.4749E-03     16.0554E-03     64.5069E-03     137.451E-03    -58.0702E-03    -79.3811E-03    -55.8838E-03     113.954E-03    -58.0702E-03     127.402E-03     429.440E-03     135.092E+06     132.134E+06     123.354E+06    -7.12778E+06    -7.12128E+06     132.128E+06     123.354E+06     17.1625E+03
            1226     65.0244E-03     943.688E-06     65.0176E-03     116.316E-03    -58.0967E-03    -58.2197E-03    -58.1553E-03     116.313E-03    -58.1581E-03     1.04202E-03     117.354E-03     210.871E+06    -71.3360E+06    -73.8204E+06    -283.436E+06    -73.0165E+06    -283.423E+06    -72.1533E+06    -148.750E+03
            1227     65.0447E-03     1.88775E-03     65.0173E-03     116.287E-03    -58.0401E-03    -58.2467E-03    -58.1028E-03     116.285E-03    -58.1819E-03     1.05493E-03     118.348E-03     211.182E+06    -64.6431E+06    -70.4943E+06    -278.670E+06    -70.4990E+06    -278.665E+06    -64.6431E+06    -389.981E+03
            1228     65.0802E-03     2.83137E-03     65.0186E-03     116.172E-03    -57.9170E-03    -58.2548E-03    -57.9755E-03     116.166E-03    -58.1900E-03     1.96453E-03     119.992E-03     213.307E+06    -55.0436E+06    -65.8307E+06    -273.530E+06    -65.8497E+06    -273.511E+06    -55.0436E+06    -934.860E+03
            1229     65.1311E-03     3.77465E-03     65.0216E-03     115.962E-03    -57.7827E-03    -58.1789E-03    -57.7670E-03     115.946E-03    -58.1789E-03     3.18013E-03     122.412E-03     215.029E+06    -42.5083E+06    -58.8493E+06    -265.211E+06    -58.8732E+06    -265.187E+06    -42.5083E+06    -702.067E+03
            1230     65.1959E-03     4.72033E-03     65.0248E-03     115.952E-03    -57.7887E-03    -58.1632E-03    -57.7561E-03     115.919E-03    -58.1632E-03     4.68885E-03     126.023E-03     209.694E+06    -28.9391E+06    -52.3014E+06    -249.287E+06    -52.3124E+06    -249.276E+06    -28.9391E+06    -538.196E+03
            1231     65.2759E-03     5.66339E-03     65.0298E-03     115.817E-03    -57.6716E-03    -58.1454E-03    -57.6122E-03     115.758E-03    -58.1454E-03     6.33359E-03     130.504E-03     198.895E+06    -17.6223E+06    -47.5122E+06    -229.723E+06    -47.5361E+06    -229.699E+06    -17.6223E+06     242.834E+03
            1232     65.3716E-03     6.60818E-03     65.0367E-03     115.932E-03    -57.7596E-03    -58.1726E-03    -57.7088E-03     115.836E-03    -58.1275E-03     8.09148E-03     136.502E-03     186.108E+06    -9.91924E+06    -44.6954E+06    -210.936E+06    -44.7224E+06    -210.909E+06    -9.91924E+06     870.626E+03
            1233     65.4836E-03     7.55144E-03     65.0468E-03     116.008E-03    -57.8737E-03    -58.1345E-03    -57.7635E-03     115.853E-03    -58.0894E-03     10.2724E-03     143.809E-03     162.203E+06    -9.41107E+06    -43.2565E+06    -185.848E+06    -43.3130E+06    -185.791E+06    -9.41107E+06    -598.379E+03
            1234     65.6095E-03     8.49570E-03     65.0572E-03     115.610E-03    -57.5923E-03    -58.0178E-03    -57.3313E-03     115.349E-03    -58.0178E-03     13.3171E-03     151.980E-03     128.543E+06    -11.5994E+06    -42.9240E+06    -152.826E+06    -43.0023E+06    -152.747E+06    -11.5994E+06    -576.414E+03
            1235     65.7557E-03     9.44118E-03     65.0744E-03     115.863E-03    -57.6864E-03    -58.1766E-03    -57.4203E-03     115.381E-03    -57.9611E-03     18.0341E-03     163.531E-03     97.5813E+06    -8.98901E+06    -40.4419E+06    -118.275E+06    -40.7949E+06    -117.922E+06    -8.98901E+06     2.47465E+06
            1236     65.9201E-03     10.3835E-03     65.0972E-03     115.778E-03    -57.6605E-03    -58.1174E-03    -57.1775E-03     115.079E-03    -57.9020E-03     21.9553E-03     177.357E-03     61.2466E+06    -4.75675E+06    -33.2236E+06    -74.4295E+06    -33.7355E+06    -73.9176E+06    -4.75675E+06     2.80978E+06
            1237     66.0993E-03     11.3290E-03     65.1212E-03     115.630E-03    -57.5405E-03    -58.0891E-03    -56.7130E-03     114.495E-03    -57.7820E-03     27.5509E-03     194.093E-03     41.6818E+06     10.8278E+06    -17.6473E+06    -36.9412E+06    -27.7027E+06    -11.1360E+06    -4.92204E+06     1.39732E+06
            1238     66.3037E-03     12.2733E-03     65.1578E-03     116.736E-03    -57.6957E-03    -59.0407E-03    -56.6494E-03     114.345E-03    -57.6957E-03     39.9669E-03     219.816E-03     77.8116E+06     61.2346E+06     1.94751E+06    -26.6187E+06    -26.5855E+06     61.2014E+06     1.94751E+06     953.574E+03
            1239     66.5333E-03     13.2188E-03     65.2070E-03     118.778E-03    -57.7318E-03    -61.0463E-03    -56.1185E-03     113.850E-03    -57.7318E-03     57.8728E-03     257.745E-03     113.696E+06     104.970E+06     23.2616E+06    -24.3557E+06    -24.3245E+06     104.939E+06     23.2616E+06     1.26757E+06
            1240     66.8036E-03     14.1645E-03     65.2846E-03     128.001E-03    -57.8653E-03    -70.1352E-03    -56.3873E-03     114.253E-03    -57.8653E-03     97.5384E-03     317.651E-03     118.970E+06     115.102E+06     55.9016E+06    -20.3787E+06    -20.3496E+06     115.073E+06     55.9016E+06     1.31549E+06
            1241     67.1436E-03     15.1074E-03     65.4220E-03     143.921E-03    -58.0169E-03    -85.9045E-03    -56.1152E-03     114.132E-03    -58.0169E-03     153.003E-03     426.506E-03     127.275E+06     122.274E+06     96.8547E+06    -14.7995E+06    -14.7826E+06     122.258E+06     96.8547E+06     35.4588E+03
            1242     67.5629E-03     16.0583E-03     65.6267E-03     137.205E-03    -58.0671E-03    -79.1382E-03    -55.8801E-03     113.947E-03    -58.0671E-03     126.961E-03     429.073E-03     135.132E+06     131.793E+06     123.973E+06    -7.07601E+06    -7.05538E+06     131.773E+06     123.973E+06     135.660E+03
            1243     66.1450E-03     943.951E-06     66.1383E-03     116.105E-03    -57.8972E-03    -58.2080E-03    -58.1838E-03     116.104E-03    -57.9205E-03     605.779E-06     117.249E-03     211.939E+06    -69.6271E+06    -71.4508E+06    -282.471E+06    -71.4670E+06    -282.455E+06    -69.6271E+06    -1.25035E+06
            1244     66.1668E-03     1.88775E-03     66.1399E-03     116.162E-03    -57.9814E-03    -58.1811E-03    -58.0685E-03     116.160E-03    -58.0918E-03     1.18051E-03     118.249E-03     211.819E+06    -62.1233E+06    -67.9917E+06    -276.793E+06    -67.9951E+06    -276.789E+06    -62.1233E+06    -505.087E+03
            1245     66.2014E-03     2.83107E-03     66.1409E-03     116.061E-03    -57.8719E-03    -58.1895E-03    -57.9299E-03     116.055E-03    -58.1247E-03     2.03594E-03     119.866E-03     213.578E+06    -52.3278E+06    -65.4047E+06    -272.110E+06    -65.4277E+06    -272.087E+06    -52.3278E+06    -1.95961E+06
            1246     66.2501E-03     3.77627E-03     66.1424E-03     115.843E-03    -57.7252E-03    -58.1179E-03    -57.7097E-03     115.828E-03    -58.1179E-03     3.23054E-03     122.250E-03     214.694E+06    -41.8152E+06    -60.9055E+06    -265.385E+06    -60.9445E+06    -265.346E+06    -41.8152E+06    -2.81812E+06
            1247     66.3148E-03     4.71937E-03     66.1466E-03     115.794E-03    -57.6936E-03    -58.1009E-03    -57.6643E-03     115.765E-03    -58.1009E-03     4.43793E-03     125.828E-03     209.449E+06    -29.4845E+06    -55.4814E+06    -250.653E+06    -55.5028E+06    -250.632E+06    -29.4845E+06    -1.42152E+06
            1248     66.3936E-03     5.66435E-03     66.1515E-03     115.904E-03    -57.8064E-03    -58.0978E-03    -57.7539E-03     115.852E-03    -58.0978E-03     5.98197E-03     130.579E-03     199.317E+06    -18.6756E+06    -50.7357E+06    -232.068E+06    -50.7566E+06    -232.047E+06    -18.6756E+06     1.04842E+06
            1249     66.4878E-03     6.60769E-03     66.1586E-03     115.849E-03    -57.7582E-03    -58.0909E-03    -57.6583E-03     115.749E-03    -58.0909E-03     8.20132E-03     136.439E-03     186.293E+06    -11.0271E+06    -45.8110E+06    -212.240E+06    -45.8618E+06    -212.189E+06    -11.0271E+06     2.59078E+06
            1250     66.5983E-03     7.55259E-03     66.1687E-03     115.919E-03    -57.7962E-03    -58.1232E-03    -57.7036E-03     115.766E-03    -58.0628E-03     10.2827E-03     143.609E-03     162.743E+06    -6.71563E+06    -42.2542E+06    -184.270E+06    -42.3528E+06    -184.171E+06    -6.71563E+06     3.14647E+06
            1251     66.7226E-03     8.49638E-03     66.1794E-03     116.049E-03    -57.9322E-03    -58.1170E-03    -57.7888E-03     115.799E-03    -58.0101E-03     13.0225E-03     152.424E-03     130.175E+06    -9.79136E+06    -40.2867E+06    -152.391E+06    -40.3793E+06    -152.298E+06    -9.79136E+06     2.18614E+06
            1252     66.8658E-03     9.43909E-03     66.1962E-03     115.810E-03    -57.7856E-03    -58.0248E-03    -57.3505E-03     115.301E-03    -57.9505E-03     18.4639E-03     163.293E-03     96.5477E+06    -11.2559E+06    -36.7248E+06    -117.805E+06    -36.7624E+06    -117.768E+06    -11.2559E+06    -60.6976E+03
            1253     67.0289E-03     10.3851E-03     66.2195E-03     115.668E-03    -57.7217E-03    -57.9463E-03    -57.0706E-03     114.948E-03    -57.8773E-03     22.2953E-03     177.000E-03     57.3181E+06    -8.41997E+06    -33.1756E+06    -72.8641E+06    -33.2649E+06    -72.7748E+06    -8.41997E+06    -1.12797E+06
            1254     67.2046E-03     11.3286E-03     66.2429E-03     115.712E-03    -57.7400E-03    -57.9719E-03    -56.7691E-03     114.533E-03    -57.7635E-03     28.0204E-03     194.222E-03     39.1138E+06     6.55884E+06    -21.0949E+06    -38.0463E+06    -30.6962E+06    -13.0752E+06    -8.81083E+06     456.984E+03
            1255     67.4062E-03     12.2744E-03     66.2792E-03     116.445E-03    -57.6784E-03    -58.7665E-03    -56.3199E-03     113.998E-03    -57.6784E-03     40.4860E-03     219.226E-03     77.9629E+06     60.4520E+06     1.09687E+06    -27.6180E+06    -27.5549E+06     60.3889E+06     1.09687E+06     1.82408E+06
            1256     67.6349E-03     13.2177E-03     66.3307E-03     118.931E-03    -57.6996E-03    -61.2310E-03    -56.2531E-03     113.953E-03    -57.6996E-03     58.2088E-03     257.362E-03     114.232E+06     104.823E+06     21.2437E+06    -24.9937E+06    -24.9446E+06     104.774E+06     21.2437E+06     1.95622E+06
            1257     67.8973E-03     14.1629E-03     66.4037E-03     127.831E-03    -57.8258E-03    -70.0053E-03    -56.1582E-03     113.984E-03    -57.8258E-03     97.7250E-03     317.015E-03     119.538E+06     116.041E+06     53.4582E+06    -20.2629E+06    -20.2353E+06     116.013E+06     53.4582E+06     1.38044E+06
            1258     68.2410E-03     15.1106E-03     66.5470E-03     144.645E-03    -57.9991E-03    -86.6459E-03    -56.7476E-03     114.747E-03    -57.9991E-03     153.982E-03     425.979E-03     128.448E+06     123.770E+06     96.6905E+06    -14.8021E+06    -14.7806E+06     123.749E+06     96.6905E+06     157.611E+03
            1259     68.6469E-03     16.0515E-03     66.7438E-03     138.033E-03    -58.0859E-03    -79.9468E-03    -56.5024E-03     114.588E-03    -58.0859E-03     128.545E-03     429.571E-03     135.316E+06     131.204E+06     123.621E+06    -7.74227E+06    -7.70393E+06     131.166E+06     123.621E+06    -205.593E+03
            1260     67.2670E-03     943.901E-06     67.2604E-03     115.877E-03    -57.6230E-03    -58.2543E-03    -58.2526E-03     115.876E-03    -57.6230E-03     953.214E-06     117.004E-03     212.458E+06    -66.6886E+06    -69.7533E+06    -280.655E+06    -69.7607E+06    -280.648E+06    -66.6886E+06    -304.030E+03
            1261     67.2882E-03     1.88761E-03     67.2617E-03     115.878E-03    -57.8814E-03    -57.9967E-03    -57.9045E-03     115.876E-03    -57.9710E-03     1.32568E-03     117.971E-03     212.813E+06    -60.0925E+06    -67.0245E+06    -276.275E+06    -67.0298E+06    -276.270E+06    -60.0925E+06    -775.271E+03
            1262     67.3216E-03     2.83265E-03     67.2620E-03     115.893E-03    -57.8858E-03    -58.0068E-03    -57.8799E-03     115.887E-03    -58.0068E-03     1.92707E-03     119.763E-03     213.983E+06    -49.7059E+06    -63.5740E+06    -270.243E+06    -63.5930E+06    -270.224E+06    -49.7059E+06    -859.525E+03
            1263     67.3707E-03     3.77529E-03     67.2648E-03     116.002E-03    -57.9455E-03    -58.0567E-03    -57.9319E-03     115.989E-03    -58.0567E-03     3.02886E-03     122.487E-03     215.412E+06    -39.0738E+06    -61.4625E+06    -264.780E+06    -61.4916E+06    -264.751E+06    -39.0738E+06    -475.446E+03
            1264     67.4329E-03     4.72031E-03     67.2675E-03     115.891E-03    -57.8136E-03    -58.0779E-03    -57.7852E-03     115.863E-03    -58.0779E-03     4.35989E-03     125.953E-03     208.820E+06    -31.0249E+06    -58.5297E+06    -252.222E+06    -58.5495E+06    -252.202E+06    -31.0249E+06    -460.669E+03
            1265     67.5117E-03     5.66380E-03     67.2737E-03     115.813E-03    -57.7346E-03    -58.0787E-03    -57.6808E-03     115.759E-03    -58.0787E-03     6.04144E-03     130.505E-03     198.840E+06    -21.2503E+06    -52.6831E+06    -233.912E+06    -52.6898E+06    -233.906E+06    -21.2503E+06     204.358E+03
            1266     67.6041E-03     6.60833E-03     67.2804E-03     115.810E-03    -57.7373E-03    -58.0725E-03    -57.6446E-03     115.717E-03    -58.0725E-03     7.94625E-03     136.417E-03     187.779E+06    -12.1919E+06    -46.1009E+06    -214.592E+06     -46.135E+06    -214.558E+06    -12.1919E+06     1.87083E+06
            1267     67.7123E-03     7.55228E-03     67.2899E-03     115.819E-03    -57.7219E-03    -58.0968E-03    -57.6186E-03     115.655E-03    -58.0364E-03     10.5024E-03     143.418E-03     164.072E+06    -7.29848E+06    -40.0060E+06    -185.215E+06    -40.1079E+06    -185.113E+06    -7.29848E+06     3.34139E+06
            1268     67.8373E-03     8.49574E-03     67.3032E-03     115.987E-03    -57.8431E-03    -58.1439E-03    -57.7352E-03     115.717E-03    -57.9820E-03     13.5792E-03     152.314E-03     131.056E+06    -7.15830E+06    -34.5684E+06    -149.685E+06    -34.6416E+06    -149.612E+06    -7.15830E+06     1.84798E+06
            1269     67.9761E-03     9.44078E-03     67.3173E-03     115.827E-03    -57.7927E-03    -58.0345E-03    -57.3987E-03     115.324E-03    -57.9249E-03     18.3710E-03     163.343E-03     97.8569E+06    -8.60825E+06    -31.7431E+06    -115.850E+06    -31.7536E+06    -115.839E+06    -8.60825E+06    -94.6405E+03
            1270     68.1370E-03     10.3846E-03     67.3410E-03     115.462E-03    -57.5683E-03    -57.8941E-03    -56.8669E-03     114.712E-03    -57.8449E-03     22.6982E-03     176.669E-03     58.4243E+06    -7.56473E+06    -31.4999E+06    -72.8949E+06    -31.5864E+06    -72.8084E+06    -7.56473E+06    -443.306E+03
            1271     68.3119E-03     11.3295E-03     67.3659E-03     115.697E-03    -57.5854E-03    -58.1114E-03    -56.7643E-03     114.494E-03    -57.7297E-03     28.4216E-03     194.274E-03     37.8997E+06     5.61200E+06    -20.0345E+06    -37.7901E+06    -30.4771E+06    -14.1291E+06    -7.60638E+06     226.779E+03
            1272     68.5082E-03     12.2733E-03     67.3998E-03     116.586E-03    -57.6466E-03    -58.9395E-03    -56.4726E-03     114.119E-03    -57.6466E-03     40.6293E-03     219.166E-03     76.4184E+06     58.4109E+06     657.038E+03    -27.9080E+06    -27.8687E+06     58.3716E+06     657.038E+03     1.31030E+06
            1273     68.7362E-03     13.2210E-03     67.4528E-03     118.729E-03    -57.6709E-03    -61.0578E-03    -56.0853E-03     113.756E-03    -57.6709E-03     58.1856E-03     257.539E-03     114.051E+06     104.668E+06     21.6127E+06    -24.8748E+06    -24.8474E+06     104.641E+06     21.6127E+06     1.25889E+06
            1274     68.9975E-03     14.1642E-03     67.5280E-03     127.300E-03    -57.7942E-03    -69.5061E-03    -55.9874E-03     113.782E-03    -57.7942E-03     96.4512E-03     317.380E-03     119.947E+06     116.407E+06     54.5480E+06    -20.5116E+06    -20.4945E+06     116.390E+06     54.5480E+06     1.29583E+06
            1275     69.3293E-03     15.1109E-03     67.6625E-03     145.080E-03    -57.9645E-03    -87.1158E-03    -56.8172E-03     114.782E-03    -57.9645E-03     154.950E-03     426.107E-03     130.096E+06     125.889E+06     97.9875E+06    -14.6400E+06    -14.6182E+06     125.867E+06     97.9875E+06     1.13067E+06
            1276     69.7505E-03     16.0580E-03     67.8769E-03     138.695E-03    -58.0662E-03    -80.6285E-03    -56.9835E-03     115.050E-03    -58.0662E-03     128.145E-03     429.541E-03     136.467E+06     132.523E+06     124.863E+06    -7.60267E+06    -7.58264E+06     132.503E+06     124.863E+06    -188.904E+03
            1277     68.3893E-03     944.314E-06     68.3828E-03     115.569E-03    -57.5622E-03    -58.0070E-03    -57.9134E-03     115.568E-03    -57.6543E-03     889.394E-06     116.657E-03     211.282E+06    -68.3663E+06    -71.8704E+06    -281.369E+06    -71.5247E+06    -281.366E+06    -68.7155E+06     1.02540E+03
            1278     68.4084E-03     1.88867E-03     68.3823E-03     115.695E-03    -57.8306E-03    -57.8645E-03    -57.8466E-03     115.693E-03    -57.8463E-03     1.06589E-03     117.775E-03     212.611E+06    -59.6737E+06    -68.1038E+06    -276.359E+06    -68.1134E+06    -276.350E+06    -59.6737E+06     12.0465E+03
            1279     68.4429E-03     2.83161E-03     68.3843E-03     115.886E-03    -57.9228E-03    -57.9628E-03    -57.9519E-03     115.880E-03    -57.9280E-03     1.92240E-03     119.744E-03     214.079E+06    -49.4339E+06    -64.7326E+06    -270.719E+06    -64.7497E+06    -270.702E+06    -49.4339E+06     941.345E+03
            1280     68.4901E-03     3.77681E-03     68.3859E-03     116.013E-03    -57.9800E-03    -58.0332E-03    -57.9849E-03     116.000E-03    -58.0154E-03     2.93870E-03     122.537E-03     216.359E+06    -38.0443E+06    -60.1516E+06    -264.589E+06    -60.1684E+06    -264.573E+06    -38.0443E+06     1.84063E+06
            1281     68.5528E-03     4.71947E-03     68.3902E-03     115.975E-03    -57.9182E-03    -58.0568E-03    -57.8902E-03     115.947E-03    -58.0568E-03     4.31977E-03     126.078E-03     209.310E+06    -29.8108E+06    -55.8115E+06    -250.894E+06    -55.8308E+06    -250.875E+06    -29.8108E+06     1.09795E+06
            1282     68.6285E-03     5.66412E-03     68.3944E-03     115.800E-03    -57.7416E-03    -58.0585E-03    -57.6869E-03     115.745E-03    -58.0585E-03     6.08250E-03     130.474E-03     198.160E+06    -23.3866E+06    -52.2664E+06    -234.368E+06    -52.2772E+06    -234.358E+06    -23.3866E+06     357.349E+03
            1283     68.7211E-03     6.60816E-03     68.4027E-03     115.744E-03    -57.7038E-03    -58.0400E-03    -57.6051E-03     115.645E-03    -58.0400E-03     8.16903E-03     136.284E-03     185.808E+06    -17.2876E+06    -47.5566E+06    -216.344E+06    -47.5669E+06    -216.334E+06    -17.2876E+06     219.733E+03
            1284     68.8272E-03     7.55206E-03     68.4116E-03     115.717E-03    -57.7191E-03    -57.9981E-03    -57.5497E-03     115.548E-03    -57.9981E-03     10.6978E-03     143.313E-03     161.361E+06    -12.2919E+06    -41.7333E+06    -186.329E+06    -41.7482E+06    -186.315E+06    -12.2919E+06     357.933E+03
            1285     68.9500E-03     8.49771E-03     68.4244E-03     115.618E-03    -57.6202E-03    -57.9982E-03    -57.4064E-03     115.349E-03    -57.9431E-03     13.5358E-03     151.894E-03     128.583E+06    -8.54583E+06    -37.5775E+06    -149.104E+06    -37.6344E+06    -149.047E+06    -8.54583E+06     1.63486E+06
            1286     69.0888E-03     9.44039E-03     68.4408E-03     115.607E-03    -57.6699E-03    -57.9373E-03    -57.2512E-03     115.125E-03    -57.8742E-03     18.0014E-03     163.214E-03     95.1128E+06    -8.61922E+06    -35.6762E+06    -114.238E+06    -35.7318E+06    -114.183E+06    -8.61922E+06     1.33331E+06
            1287     69.2446E-03     10.3853E-03     68.4614E-03     115.643E-03    -57.6148E-03    -58.0286E-03    -57.0912E-03     114.885E-03    -57.7942E-03     22.8105E-03     176.939E-03     56.6756E+06    -9.01725E+06    -32.8087E+06    -72.9308E+06    -32.8179E+06    -72.9216E+06    -9.01725E+06     47.3805E+03
            1288     69.4186E-03     11.3306E-03     68.4877E-03     115.842E-03    -57.5637E-03    -58.2778E-03    -56.9949E-03     114.703E-03    -57.7081E-03     27.8142E-03     194.648E-03     38.3930E+06     5.38778E+06    -18.9465E+06    -38.8357E+06    -30.4665E+06    -14.2876E+06    -7.64034E+06    -32.0969E+03
            1289     69.6134E-03     12.2755E-03     68.5226E-03     116.534E-03    -57.6488E-03    -58.8849E-03    -56.5111E-03     114.160E-03    -57.6488E-03     39.5744E-03     219.641E-03     78.0536E+06     59.1319E+06     2.26729E+06    -29.5467E+06    -29.5299E+06     59.1150E+06     2.26729E+06     426.724E+03
            1290     69.8368E-03     13.2169E-03     68.5747E-03     118.226E-03    -57.6680E-03    -60.5579E-03    -55.6023E-03     113.270E-03    -57.6680E-03     57.9085E-03     257.320E-03     115.159E+06     104.804E+06     24.4893E+06    -26.6611E+06    -26.6452E+06     104.788E+06     24.4893E+06     1.07999E+06
            1291     70.0939E-03     14.1656E-03     68.6476E-03     127.684E-03    -57.7910E-03    -69.8932E-03    -56.5097E-03     114.301E-03    -57.7910E-03     96.4226E-03     317.786E-03     120.247E+06     115.720E+06     56.7634E+06    -21.5734E+06    -21.5553E+06     115.702E+06     56.7634E+06     1.25335E+06
            1292     70.4267E-03     15.1093E-03     68.7869E-03     145.001E-03    -57.9848E-03    -87.0166E-03    -57.2817E-03     115.267E-03    -57.9848E-03     153.537E-03     426.893E-03     130.754E+06     126.873E+06     98.2972E+06    -14.8186E+06    -14.8015E+06     126.856E+06     98.2972E+06     833.357E+03
            1293     70.8371E-03     16.0543E-03     68.9939E-03     137.778E-03    -58.0897E-03    -79.6879E-03    -56.4539E-03     114.544E-03    -58.0897E-03     126.654E-03     428.728E-03     135.845E+06     133.204E+06     124.957E+06    -6.53112E+06    -6.52616E+06     133.199E+06     124.957E+06     228.339E+03
            1294     69.5091E-03     943.968E-06     69.5027E-03     115.677E-03    -57.7391E-03    -57.9377E-03    -57.8041E-03     115.676E-03    -57.8717E-03     716.679E-06     116.718E-03     210.611E+06    -69.0178E+06    -71.4242E+06    -280.817E+06    -70.9594E+06    -280.813E+06    -69.4862E+06     114.253E+03
            1295     69.5301E-03     1.88794E-03     69.5044E-03     115.709E-03    -57.8100E-03    -57.8987E-03    -57.8254E-03     115.707E-03    -57.8818E-03     829.543E-06     117.800E-03     212.328E+06    -61.2426E+06    -69.2393E+06    -277.426E+06    -69.2516E+06    -277.414E+06    -61.2426E+06     1.21122E+06
            1296     69.5629E-03     2.83292E-03     69.5051E-03     115.884E-03    -57.9061E-03    -57.9781E-03    -57.9362E-03     115.879E-03    -57.9433E-03     1.73379E-03     119.742E-03     214.525E+06    -50.9109E+06    -65.4568E+06    -272.312E+06    -65.4725E+06    -272.297E+06    -50.9109E+06     1.72805E+06
            1297     69.6109E-03     3.77542E-03     69.5085E-03     115.875E-03    -57.8540E-03    -58.0209E-03    -57.8606E-03     115.864E-03    -58.0030E-03     2.72770E-03     122.375E-03     215.784E+06    -39.8247E+06    -59.5887E+06    -264.780E+06    -59.5983E+06    -264.770E+06    -39.8247E+06     965.194E+03
            1298     69.6711E-03     4.72067E-03     69.5110E-03     115.861E-03    -57.8265E-03    -58.0341E-03    -57.7971E-03     115.831E-03    -58.0341E-03     4.39462E-03     125.882E-03     210.624E+06    -28.1594E+06    -53.1488E+06    -250.146E+06    -53.1660E+06    -250.129E+06    -28.1594E+06     1.38070E+06
            1299     69.7475E-03     5.66397E-03     69.5171E-03     115.904E-03    -57.8581E-03    -58.0455E-03    -57.8042E-03     115.850E-03    -58.0455E-03     6.08341E-03     130.562E-03     200.948E+06    -19.8469E+06    -47.9305E+06    -233.348E+06    -47.9424E+06    -233.337E+06    -19.8469E+06     1.13645E+06
            1300     69.8365E-03     6.60832E-03     69.5231E-03     115.838E-03    -57.7947E-03    -58.0433E-03    -57.6978E-03     115.741E-03    -58.0433E-03     8.07301E-03     136.400E-03     187.888E+06    -14.2862E+06    -44.6338E+06    -215.473E+06    -44.6430E+06    -215.464E+06    -14.2862E+06     49.8701E+03
            1301     69.9431E-03     7.55309E-03     69.5341E-03     115.755E-03    -57.7429E-03    -58.0126E-03    -57.5864E-03     115.599E-03    -58.0126E-03     10.3593E-03     143.490E-03     163.614E+06    -10.5567E+06    -42.3434E+06    -187.709E+06    -42.3601E+06    -187.693E+06    -10.5567E+06     416.512E+03
            1302     70.0629E-03     8.49539E-03     69.5459E-03     115.423E-03    -57.4776E-03    -57.9458E-03    -57.2262E-03     115.172E-03    -57.9458E-03     13.0482E-03     151.776E-03     130.353E+06    -8.15277E+06    -38.9860E+06    -151.121E+06    -39.0438E+06    -151.063E+06    -8.15277E+06     1.47662E+06
            1303     70.1998E-03     9.44213E-03     69.5619E-03     115.428E-03    -57.4899E-03    -57.9384E-03    -57.1085E-03     114.971E-03    -57.8626E-03     17.5443E-03     163.077E-03     95.1916E+06    -6.30239E+06    -34.9133E+06    -112.437E+06    -34.9921E+06    -112.359E+06    -6.30239E+06     1.53294E+06
            1304     70.3543E-03     10.3863E-03     69.5835E-03     115.968E-03    -57.7538E-03    -58.2145E-03    -57.4544E-03     115.243E-03    -57.7888E-03     22.3275E-03     177.401E-03     55.9920E+06    -8.23951E+06    -33.2136E+06    -71.7549E+06    -33.2528E+06    -71.7156E+06    -8.23951E+06     212.829E+03
            1305     70.5268E-03     11.3284E-03     69.6111E-03     116.061E-03    -57.7215E-03    -58.3398E-03    -57.2063E-03     114.928E-03    -57.7215E-03     27.7468E-03     194.707E-03     39.4002E+06     4.26754E+06    -20.8152E+06    -41.1091E+06    -32.6997E+06    -15.5283E+06    -9.42877E+06     376.419E+03
            1306     70.7166E-03     12.2722E-03     69.6436E-03     116.183E-03    -57.6602E-03    -58.5223E-03    -56.1934E-03     113.854E-03    -57.6602E-03     39.1717E-03     219.564E-03     79.0364E+06     59.7635E+06     1.93022E+06    -29.9667E+06    -29.8841E+06     59.6808E+06     1.93022E+06     714.351E+03
            1307     70.9390E-03     13.2221E-03     69.6959E-03     118.001E-03    -57.6537E-03    -60.3468E-03    -55.5194E-03     113.173E-03    -57.6537E-03     57.0870E-03     256.567E-03     114.472E+06     105.114E+06     22.6261E+06    -25.1871E+06    -25.1609E+06     105.087E+06     22.6261E+06    -106.148E+03
            1308     71.1922E-03     14.1651E-03     69.7688E-03     128.372E-03    -57.7799E-03    -70.5923E-03    -56.7420E-03     114.522E-03    -57.7799E-03     97.9346E-03     317.015E-03     119.525E+06     115.575E+06     55.0410E+06    -20.5258E+06    -20.5108E+06     115.560E+06     55.0410E+06     288.694E+03
            1309     71.5273E-03     15.1084E-03     69.9135E-03     145.430E-03    -57.9991E-03    -87.4313E-03    -57.6729E-03     115.672E-03    -57.9991E-03     154.264E-03     427.219E-03     130.979E+06     127.468E+06     98.4105E+06    -14.7240E+06    -14.7135E+06     127.457E+06     98.4105E+06     767.452E+03
            1310     71.9260E-03     16.0542E-03     70.1115E-03     137.980E-03    -58.1165E-03    -79.8635E-03    -56.6354E-03     114.752E-03    -58.1165E-03     128.107E-03     429.739E-03     136.124E+06     133.482E+06     124.045E+06    -7.06410E+06    -7.05735E+06     133.476E+06     124.045E+06     598.319E+03
            1311     70.6318E-03     943.859E-06     70.6255E-03     115.976E-03    -57.8726E-03    -58.1035E-03    -58.0620E-03     115.975E-03    -57.9131E-03     532.194E-06     117.109E-03     211.074E+06    -68.8535E+06    -71.4049E+06    -281.182E+06    -71.2928E+06    -281.175E+06    -68.9727E+06     350.416E+03
            1312     70.6499E-03     1.88810E-03     70.6247E-03     115.976E-03    -57.9456E-03    -58.0300E-03    -57.9528E-03     115.974E-03    -58.0213E-03     955.169E-06     118.079E-03     213.179E+06    -62.0787E+06    -68.6173E+06    -278.433E+06    -68.6264E+06    -278.423E+06    -62.0787E+06     1.21352E+06
            1313     70.6846E-03     2.83110E-03     70.6279E-03     115.827E-03    -57.7952E-03    -58.0315E-03    -57.7911E-03     115.823E-03    -58.0315E-03     1.62504E-03     119.694E-03     214.818E+06    -51.8036E+06    -63.5886E+06    -272.237E+06    -63.5966E+06    -272.229E+06    -51.8036E+06     867.173E+03
            1314     70.7299E-03     3.77657E-03     70.6290E-03     115.743E-03    -57.7117E-03    -58.0310E-03    -57.7005E-03     115.731E-03    -58.0310E-03     2.70514E-03     122.236E-03     215.826E+06    -39.6253E+06    -58.4623E+06    -264.222E+06    -58.4656E+06    -264.219E+06    -39.6253E+06     235.291E+03
            1315     70.7906E-03     4.71986E-03     70.6331E-03     115.828E-03    -57.7871E-03    -58.0406E-03    -57.7599E-03     115.800E-03    -58.0406E-03     4.25443E-03     125.881E-03     212.016E+06    -27.8027E+06    -53.7428E+06    -251.567E+06    -53.7503E+06    -251.559E+06    -27.8027E+06     455.638E+03
            1316     70.8652E-03     5.66462E-03     70.6384E-03     115.978E-03    -57.9065E-03    -58.0717E-03    -57.8618E-03     115.928E-03    -58.0659E-03     5.87800E-03     130.616E-03     202.337E+06    -16.5587E+06    -48.4159E+06    -232.901E+06    -48.4331E+06    -232.884E+06    -16.5587E+06     1.08543E+06
            1317     70.9541E-03     6.60814E-03     70.6457E-03     116.097E-03    -58.0012E-03    -58.0960E-03    -57.9177E-03     116.008E-03    -58.0901E-03     7.79678E-03     136.699E-03     190.658E+06    -9.26085E+06    -43.7272E+06    -214.790E+06    -43.7492E+06    -214.768E+06    -9.26085E+06     1.63654E+06
            1318     71.0579E-03     7.55129E-03     70.6555E-03     115.719E-03    -57.6649E-03    -58.0541E-03    -57.5172E-03     115.571E-03    -58.0541E-03     10.0469E-03     143.555E-03     166.613E+06    -7.86524E+06    -39.8571E+06    -188.142E+06    -39.8757E+06    -188.123E+06    -7.86524E+06     1.55064E+06
            1319     71.1768E-03     8.49771E-03     70.6678E-03     115.465E-03    -57.4759E-03    -57.9892E-03    -57.2573E-03     115.226E-03    -57.9687E-03     12.7416E-03     151.742E-03     131.929E+06     -7.6304E+06    -36.4257E+06    -151.536E+06    -36.4430E+06    -151.519E+06     -7.6304E+06     1.05543E+06
            1320     71.3103E-03     9.44038E-03     70.6826E-03     115.759E-03    -57.7300E-03    -58.0287E-03    -57.3988E-03     115.297E-03    -57.8985E-03     17.5599E-03     163.350E-03     96.6116E+06    -6.15812E+06    -33.7175E+06    -113.439E+06    -33.7546E+06    -113.402E+06    -6.15812E+06     963.143E+03
            1321     71.4656E-03     10.3842E-03     70.7072E-03     115.735E-03    -57.6619E-03    -58.0731E-03    -57.1636E-03     115.004E-03    -57.8399E-03     22.4046E-03     177.079E-03     58.8379E+06    -3.57693E+06    -30.6033E+06    -70.2747E+06    -31.2026E+06    -69.6755E+06    -3.57693E+06     1.88463E+06
            1322     71.6338E-03     11.3302E-03     70.7321E-03     115.580E-03    -57.5506E-03    -58.0298E-03    -56.6780E-03     114.410E-03    -57.7318E-03     28.0841E-03     193.895E-03     38.5991E+06     6.07777E+06    -19.3065E+06    -38.2975E+06    -29.5345E+06    -16.2001E+06    -5.79168E+06     1.63547E+06
            1323     71.8235E-03     12.2757E-03     70.7666E-03     116.421E-03    -57.6372E-03    -58.7843E-03    -56.4424E-03     114.083E-03    -57.6403E-03     39.5328E-03     219.289E-03     76.6330E+06     59.2851E+06     2.17480E+06    -27.5520E+06    -27.4355E+06     59.1686E+06     2.17480E+06     217.511E+03
            1324     72.0383E-03     13.2166E-03     70.8155E-03     118.728E-03    -57.6761E-03    -61.0515E-03    -56.2839E-03     113.960E-03    -57.6761E-03     56.9596E-03     257.249E-03     115.836E+06     106.580E+06     23.7472E+06    -25.2068E+06    -25.1853E+06     106.558E+06     23.7472E+06    -279.775E+03
            1325     72.2929E-03     14.1643E-03     70.8917E-03     127.786E-03    -57.8032E-03    -69.9825E-03    -56.0611E-03     113.864E-03    -57.8032E-03     97.5882E-03     316.767E-03     119.196E+06     114.665E+06     54.6180E+06    -21.1965E+06    -21.1588E+06     114.628E+06     54.6180E+06    -641.365E+03
            1326     72.6243E-03     15.1117E-03     71.0346E-03     145.031E-03    -57.9675E-03    -87.0632E-03    -56.7910E-03     114.759E-03    -57.9675E-03     155.177E-03     426.324E-03     129.974E+06     126.861E+06     98.1309E+06    -14.0872E+06    -14.0422E+06     126.816E+06     98.1309E+06     243.467E+03
            1327     73.0241E-03     16.0549E-03     71.2373E-03     138.862E-03    -58.0756E-03    -80.7866E-03    -57.3653E-03     115.441E-03    -58.0756E-03     128.485E-03     429.739E-03     137.256E+06     134.226E+06     123.769E+06    -7.94205E+06    -7.92420E+06     134.209E+06     123.769E+06     1.04951E+06
            1328     71.7512E-03     943.952E-06     71.7450E-03     116.212E-03    -57.8467E-03    -58.3649E-03    -58.3636E-03     116.210E-03    -57.8467E-03     681.683E-06     117.454E-03     212.466E+06    -68.8456E+06    -70.7306E+06    -282.237E+06    -70.7189E+06    -282.227E+06    -68.8669E+06     307.452E+03
            1329     71.7733E-03     1.88729E-03     71.7485E-03     116.091E-03    -57.9184E-03    -58.1728E-03    -57.9762E-03     116.090E-03    -58.1135E-03     996.459E-06     118.234E-03     213.686E+06    -62.3832E+06    -67.6023E+06    -278.615E+06    -67.6076E+06    -278.610E+06    -62.3832E+06    -6.18665E+03
            1330     71.8038E-03     2.83205E-03     71.7480E-03     115.781E-03    -57.6937E-03    -58.0874E-03    -57.6886E-03     115.776E-03    -58.0874E-03     1.72139E-03     119.589E-03     214.946E+06    -50.6464E+06    -63.6543E+06    -271.734E+06    -63.6596E+06    -271.729E+06    -50.6464E+06    -49.8727E+03
            1331     71.8503E-03     3.77562E-03     71.7511E-03     115.871E-03    -57.7954E-03    -58.0759E-03    -57.7827E-03     115.859E-03    -58.0759E-03     2.90630E-03     122.332E-03     216.712E+06    -37.7032E+06    -59.5745E+06    -264.503E+06    -59.5833E+06    -264.494E+06    -37.7032E+06     982.006E+03
            1332     71.9097E-03     4.72014E-03     71.7546E-03     116.064E-03    -57.9223E-03    -58.1416E-03    -57.9412E-03     116.039E-03    -58.0975E-03     4.12899E-03     126.176E-03     211.483E+06    -27.6555E+06    -55.3976E+06    -251.612E+06    -55.4121E+06    -251.597E+06    -27.6555E+06     1.24028E+06
            1333     71.9832E-03     5.66371E-03     71.7601E-03     116.046E-03    -57.8698E-03    -58.1766E-03    -57.8720E-03     115.999E-03    -58.1267E-03     5.69400E-03     130.719E-03     201.463E+06    -18.0152E+06    -50.7181E+06    -233.809E+06    -50.7378E+06    -233.789E+06    -18.0152E+06     1.02295E+06
            1334     72.0719E-03     6.60770E-03     71.7684E-03     115.851E-03    -57.7191E-03    -58.1318E-03    -57.6347E-03     115.761E-03    -58.1260E-03     7.81145E-03     136.430E-03     191.009E+06    -10.1481E+06    -44.7121E+06    -216.070E+06    -44.7365E+06    -216.045E+06    -10.1481E+06     1.57869E+06
            1335     72.1733E-03     7.55238E-03     71.7771E-03     115.814E-03    -57.6189E-03    -58.1949E-03    -57.5910E-03     115.662E-03    -58.0709E-03     10.1911E-03     143.466E-03     165.844E+06    -7.58281E+06    -39.4297E+06    -187.027E+06    -39.4507E+06    -187.006E+06    -7.58281E+06     1.64490E+06
            1336     72.2897E-03     8.49534E-03     71.7887E-03     115.852E-03    -57.7013E-03    -58.1506E-03    -57.6050E-03     115.611E-03    -58.0061E-03     12.8264E-03     152.093E-03     131.567E+06    -7.57004E+06    -36.1431E+06    -151.039E+06    -36.1647E+06    -151.017E+06    -7.57004E+06     1.42828E+06
            1337     72.4240E-03     9.44052E-03     71.8061E-03     115.679E-03    -57.6787E-03    -58.0007E-03    -57.2576E-03     115.204E-03    -57.9464E-03     17.7811E-03     163.276E-03     97.2716E+06    -5.95122E+06    -33.7855E+06    -113.974E+06    -33.8859E+06    -113.873E+06    -5.95122E+06     1.83328E+06
            1338     72.5747E-03     10.3852E-03     71.8278E-03     115.466E-03    -57.5156E-03    -57.9500E-03    -56.8624E-03     114.728E-03    -57.8652E-03     22.5090E-03     176.709E-03     59.8237E+06    -3.28326E+06    -31.0767E+06    -71.1880E+06    -31.7489E+06    -70.5158E+06    -3.28326E+06     2.24959E+06
            1339     72.7416E-03     11.3294E-03     71.8539E-03     115.468E-03    -57.5632E-03    -57.9043E-03    -56.6292E-03     114.374E-03    -57.7444E-03     27.2232E-03     194.201E-03     39.6464E+06     7.39912E+06    -18.0004E+06    -38.2171E+06    -28.9667E+06    -15.7745E+06    -4.07723E+06     1.46510E+06
            1340     72.9279E-03     12.2741E-03     71.8876E-03     116.301E-03    -57.6437E-03    -58.6575E-03    -56.3858E-03     114.033E-03    -57.6468E-03     38.7694E-03     219.143E-03     77.3715E+06     60.0650E+06     3.29514E+06    -27.7279E+06    -27.6235E+06     59.9606E+06     3.29514E+06     492.231E+03
            1341     73.1454E-03     13.2213E-03     71.9405E-03     118.940E-03    -57.6922E-03    -61.2475E-03    -56.3348E-03     114.027E-03    -57.6922E-03     57.7782E-03     257.354E-03     116.842E+06     107.622E+06     26.7418E+06    -25.6977E+06    -25.6881E+06     107.612E+06     26.7418E+06     300.161E+03
            1342     73.3919E-03     14.1624E-03     72.0125E-03     127.687E-03    -57.8250E-03    -69.8616E-03    -56.1980E-03     114.023E-03    -57.8250E-03     97.0980E-03     316.963E-03     119.075E+06     115.190E+06     57.3304E+06    -20.8558E+06    -20.8181E+06     115.152E+06     57.3304E+06    -206.746E+03
            1343     73.7172E-03     15.1100E-03     72.1520E-03     145.134E-03    -57.9709E-03    -87.1629E-03    -56.6568E-03     114.628E-03    -57.9709E-03     155.459E-03     425.579E-03     129.013E+06     125.058E+06     96.3217E+06    -14.9360E+06    -14.8809E+06     125.003E+06     96.3217E+06     35.1428E+03
            1344     74.1244E-03     16.0572E-03     72.3644E-03     138.797E-03    -58.0687E-03    -80.7279E-03    -57.1830E-03     115.252E-03    -58.0687E-03     127.439E-03     428.543E-03     137.456E+06     134.542E+06     123.254E+06    -8.19905E+06    -8.17592E+06     134.519E+06     123.254E+06     713.182E+03
            1345     72.8763E-03     943.772E-06     72.8702E-03     116.142E-03    -57.7596E-03    -58.3825E-03    -58.2574E-03     116.140E-03    -57.8829E-03     1.03838E-03     117.293E-03     212.257E+06    -69.3713E+06    -70.9502E+06    -282.407E+06    -70.9355E+06    -282.400E+06    -69.3926E+06    -40.4067E+03
            1346     72.8929E-03     1.88756E-03     72.8685E-03     115.990E-03    -57.7777E-03    -58.2120E-03    -57.9091E-03     115.988E-03    -58.0788E-03     957.455E-06     118.151E-03     213.624E+06    -61.6932E+06    -68.4290E+06    -278.571E+06    -68.4449E+06    -278.555E+06    -61.6932E+06     132.245E+03
            1347     72.9252E-03     2.83173E-03     72.8702E-03     116.040E-03    -57.8650E-03    -58.1749E-03    -57.9427E-03     116.035E-03    -58.0924E-03     1.69750E-03     119.889E-03     215.114E+06    -50.2012E+06    -65.3643E+06    -272.458E+06    -65.3820E+06    -272.441E+06    -50.2012E+06     920.953E+03
            1348     72.9702E-03     3.77593E-03     72.8725E-03     116.161E-03    -58.0216E-03    -58.1397E-03    -58.0098E-03     116.149E-03    -58.1391E-03     2.81813E-03     122.637E-03     216.446E+06    -38.5935E+06    -61.1953E+06    -265.438E+06    -61.2061E+06    -265.427E+06    -38.5935E+06     1.40977E+06
            1349     73.0293E-03     4.71946E-03     72.8766E-03     116.180E-03    -57.9574E-03    -58.2230E-03    -57.9750E-03     116.153E-03    -58.1784E-03     4.27260E-03     126.295E-03     211.159E+06    -27.4819E+06    -55.4265E+06    -251.203E+06    -55.4431E+06    -251.186E+06    -27.4819E+06     1.72201E+06
            1350     73.1025E-03     5.66300E-03     72.8828E-03     115.971E-03    -57.7443E-03    -58.2271E-03    -57.7380E-03     115.921E-03    -58.1830E-03     5.85591E-03     130.685E-03     201.281E+06    -18.2628E+06    -49.8670E+06    -233.468E+06    -49.8844E+06    -233.451E+06    -18.2628E+06     1.30153E+06
            1351     73.1877E-03     6.60770E-03     72.8888E-03     115.778E-03    -57.6207E-03    -58.1578E-03    -57.5337E-03     115.692E-03    -58.1578E-03     7.69522E-03     136.361E-03     191.543E+06    -10.9238E+06    -45.2266E+06    -217.285E+06    -45.2417E+06    -217.270E+06    -10.9238E+06     1.07286E+06
            1352     73.2893E-03     7.55224E-03     72.8991E-03     115.889E-03    -57.6659E-03    -58.2230E-03    -57.6381E-03     115.737E-03    -58.0990E-03     10.1605E-03     143.464E-03     165.672E+06    -7.48518E+06    -40.6628E+06    -187.225E+06    -40.6812E+06    -187.207E+06    -7.48518E+06     1.47514E+06
            1353     73.4056E-03     8.49615E-03     72.9123E-03     115.875E-03    -57.7192E-03    -58.1560E-03    -57.5925E-03     115.624E-03    -58.0319E-03     13.0987E-03     152.129E-03     131.040E+06    -7.68773E+06    -37.0817E+06    -150.912E+06     -37.109E+06    -150.884E+06    -7.68773E+06     1.71500E+06
            1354     73.5347E-03     9.43961E-03     72.9263E-03     115.676E-03    -57.6625E-03    -58.0139E-03    -57.2437E-03     115.209E-03    -57.9651E-03     17.7014E-03     163.169E-03     97.3010E+06    -6.65846E+06    -33.8510E+06    -114.574E+06    -33.9695E+06    -114.455E+06    -6.65846E+06     2.50788E+06
            1355     73.6855E-03     10.3847E-03     72.9501E-03     115.665E-03    -57.6725E-03    -57.9925E-03    -57.0553E-03     114.948E-03    -57.8928E-03     22.2092E-03     176.997E-03     60.7540E+06    -3.66855E+06    -31.3758E+06    -72.5059E+06    -32.0012E+06    -71.8804E+06    -3.66855E+06     2.89663E+06
            1356     73.8500E-03     11.3291E-03     72.9758E-03     115.705E-03    -57.7379E-03    -57.9673E-03    -56.8316E-03     114.618E-03    -57.7868E-03     27.1501E-03     194.421E-03     44.3353E+06     10.0486E+06    -18.8256E+06    -40.9391E+06    -31.0591E+06    -14.4166E+06    -4.24045E+06     2.27794E+06
            1357     74.0342E-03     12.2736E-03     73.0098E-03     116.114E-03    -57.6812E-03    -58.4328E-03    -56.1633E-03     113.845E-03    -57.6812E-03     38.7159E-03     218.903E-03     80.8798E+06     62.6336E+06     2.68141E+06    -29.0191E+06    -28.9540E+06     62.5686E+06     2.68141E+06     1.24872E+06
            1358     74.2462E-03     13.2176E-03     73.0601E-03     118.253E-03    -57.6880E-03    -60.5645E-03    -55.6883E-03     113.376E-03    -57.6880E-03     57.3615E-03     256.326E-03     116.545E+06     107.321E+06     24.7384E+06    -25.4645E+06    -25.4523E+06     107.309E+06     24.7384E+06    -381.156E+03
            1359     74.4964E-03     14.1665E-03     73.1370E-03     127.999E-03    -57.8306E-03    -70.1686E-03    -56.9445E-03     114.775E-03    -57.8306E-03     96.1139E-03     316.298E-03     119.340E+06     115.143E+06     56.6929E+06    -20.9518E+06    -20.9299E+06     115.121E+06     56.6929E+06    -351.052E+03
            1360     74.8140E-03     15.1089E-03     73.2725E-03     145.697E-03    -58.0447E-03    -87.6528E-03    -57.7634E-03     115.808E-03    -58.0447E-03     154.239E-03     426.524E-03     128.933E+06     125.643E+06     97.1106E+06    -14.3672E+06    -14.3323E+06     125.609E+06     97.1106E+06     510.749E+03
            1361     75.2193E-03     16.0529E-03     73.4863E-03     137.644E-03    -58.1409E-03    -79.5030E-03    -56.0778E-03     114.219E-03    -58.1409E-03     126.894E-03     429.178E-03     136.443E+06     134.649E+06     123.001E+06    -7.22893E+06    -7.20673E+06     134.626E+06     123.001E+06     703.454E+03
            1362     73.9960E-03     943.662E-06     73.9900E-03     115.924E-03    -57.7534E-03    -58.1705E-03    -58.0458E-03     115.923E-03    -57.8767E-03     812.385E-06     117.072E-03     210.557E+06    -70.7344E+06    -74.1702E+06    -282.974E+06    -74.1744E+06    -282.970E+06    -70.7344E+06    -65.1203E+03
            1363     74.0149E-03     1.88859E-03     73.9908E-03     116.051E-03    -57.9023E-03    -58.1485E-03    -58.0237E-03     116.049E-03    -58.0256E-03     824.421E-06     118.182E-03     213.737E+06    -62.0368E+06    -70.3668E+06    -279.805E+06    -70.3798E+06    -279.792E+06    -62.0368E+06     649.131E+03
            1364     74.0464E-03     2.83151E-03     73.9922E-03     116.336E-03    -58.0837E-03    -58.2523E-03    -58.2145E-03     116.331E-03    -58.1164E-03     1.76592E-03     120.190E-03     215.182E+06    -51.5628E+06    -65.8865E+06    -273.519E+06    -65.9107E+06    -273.495E+06    -51.5628E+06     1.76416E+06
            1365     74.0906E-03     3.77504E-03     73.9943E-03     116.329E-03    -58.0727E-03    -58.2567E-03    -58.1101E-03     116.315E-03    -58.2049E-03     3.00749E-03     122.833E-03     215.412E+06    -39.7238E+06    -61.1386E+06    -265.025E+06    -61.1622E+06    -265.001E+06    -39.7238E+06     2.01425E+06
            1366     74.1495E-03     4.71886E-03     73.9992E-03     116.073E-03    -57.8422E-03    -58.2305E-03    -57.8140E-03     116.044E-03    -58.2299E-03     4.42031E-03     126.173E-03     210.715E+06    -28.3281E+06    -56.1365E+06    -251.539E+06    -56.1522E+06    -251.523E+06    -28.3281E+06     1.64846E+06
            1367     74.2201E-03     5.66384E-03     74.0036E-03     115.918E-03    -57.7092E-03    -58.2086E-03    -57.6601E-03     115.869E-03    -58.2086E-03     5.77646E-03     130.611E-03     200.541E+06    -18.2336E+06    -50.7200E+06    -233.023E+06    -50.7339E+06    -233.009E+06    -18.2336E+06     1.45711E+06
            1368     74.3057E-03     6.60751E-03     74.0114E-03     116.039E-03    -57.8504E-03    -58.1890E-03    -57.7582E-03     115.947E-03    -58.1890E-03     7.88423E-03     136.637E-03     191.173E+06    -10.7798E+06    -45.4516E+06    -216.907E+06    -45.4633E+06    -216.895E+06    -10.7798E+06     1.21947E+06
            1369     74.4050E-03     7.55071E-03     74.0209E-03     115.830E-03    -57.6975E-03    -58.1327E-03    -57.5393E-03     115.672E-03    -58.1327E-03     10.3838E-03     143.476E-03     166.796E+06    -8.53368E+06    -40.8596E+06    -189.120E+06    -40.8751E+06    -189.104E+06    -8.53368E+06     1.29473E+06
            1370     74.5194E-03     8.49587E-03     74.0335E-03     115.604E-03    -57.5637E-03    -58.0401E-03    -57.3131E-03     115.353E-03    -58.0401E-03     13.0768E-03     151.744E-03     130.608E+06    -8.27546E+06    -37.2206E+06    -150.887E+06    -37.2560E+06    -150.851E+06    -8.27546E+06     1.95234E+06
            1371     74.6487E-03     9.44064E-03     74.0493E-03     115.936E-03    -57.8007E-03    -58.1350E-03    -57.4914E-03     115.461E-03    -57.9694E-03     17.8556E-03     163.272E-03     97.3693E+06    -7.87543E+06    -34.9925E+06    -115.870E+06    -35.0783E+06    -115.785E+06    -7.87543E+06     2.43470E+06
            1372     74.7958E-03     10.3838E-03     74.0715E-03     115.875E-03    -57.7946E-03    -58.0808E-03    -57.2222E-03     115.137E-03    -57.9152E-03     22.5511E-03     177.157E-03     60.9007E+06    -4.60002E+06    -31.8986E+06    -73.3369E+06    -32.5585E+06    -72.6771E+06    -4.60002E+06     3.54847E+06
            1373     74.9592E-03     11.3284E-03     74.0983E-03     115.397E-03    -57.5773E-03    -57.8192E-03    -56.4691E-03     114.268E-03    -57.7986E-03     27.5981E-03     193.647E-03     42.6258E+06     11.2950E+06    -17.9228E+06    -37.6075E+06    -29.1016E+06    -11.6420E+06    -3.49175E+06     2.76256E+06
            1374     75.1400E-03     12.2736E-03     74.1308E-03     116.366E-03    -57.5781E-03    -58.7877E-03    -56.3077E-03     113.986E-03    -57.6787E-03     39.7041E-03     218.658E-03     79.6672E+06     63.9933E+06     2.96247E+06    -25.8896E+06    -25.8666E+06     63.9702E+06     2.96247E+06     875.350E+03
            1375     75.3515E-03     13.2197E-03     74.1828E-03     118.814E-03    -57.7132E-03    -61.1008E-03    -56.2899E-03     114.003E-03    -57.7132E-03     57.3597E-03     256.651E-03     116.357E+06     108.765E+06     25.2571E+06    -23.4854E+06    -23.4535E+06     108.733E+06     25.2571E+06     694.986E+03
            1376     75.5947E-03     14.1627E-03     74.2562E-03     128.831E-03    -57.8898E-03    -70.9408E-03    -57.4087E-03     115.298E-03    -57.8898E-03     97.0961E-03     317.141E-03     120.132E+06     115.205E+06     56.2597E+06    -21.8032E+06    -21.7720E+06     115.174E+06     56.2597E+06     163.852E+03
            1377     75.9198E-03     15.1063E-03     74.4017E-03     145.395E-03    -58.1086E-03    -87.2867E-03    -57.5911E-03     115.700E-03    -58.1086E-03     153.811E-03     427.550E-03     129.201E+06     123.646E+06     95.1752E+06    -16.5912E+06    -16.5540E+06     123.609E+06     95.1752E+06    -384.993E+03
            1378     76.3095E-03     16.0523E-03     74.6020E-03     136.792E-03    -58.1830E-03    -78.6086E-03    -55.2703E-03     113.453E-03    -58.1830E-03     127.479E-03     430.149E-03     136.738E+06     134.570E+06     123.085E+06    -7.53469E+06    -7.49950E+06     134.535E+06     123.085E+06     287.898E+03
            1379     75.1178E-03     944.441E-06     75.1118E-03     116.042E-03    -57.8658E-03    -58.1767E-03    -58.1757E-03     116.041E-03    -57.8658E-03     446.773E-06     117.224E-03     209.605E+06    -71.6079E+06    -74.2363E+06    -282.502E+06    -73.8343E+06    -282.486E+06    -72.0253E+06    -72.5011E+03
            1380     75.1363E-03     1.88702E-03     75.1126E-03     116.235E-03    -58.0490E-03    -58.1865E-03    -58.1432E-03     116.234E-03    -58.0910E-03     870.132E-06     118.377E-03     213.284E+06    -64.3520E+06    -71.5844E+06    -281.129E+06    -71.5888E+06    -281.125E+06    -64.3520E+06     723.401E+03
            1381     75.1676E-03     2.83173E-03     75.1142E-03     116.287E-03    -58.0624E-03    -58.2243E-03    -58.1095E-03     116.281E-03    -58.1710E-03     1.92627E-03     120.135E-03     215.199E+06    -53.0544E+06    -67.1277E+06    -274.918E+06    -67.1441E+06    -274.902E+06    -53.0544E+06     1.48585E+06
            1382     75.2119E-03     3.77523E-03     75.1171E-03     116.243E-03    -57.9738E-03    -58.2694E-03    -58.0105E-03     116.229E-03    -58.2181E-03     3.12205E-03     122.779E-03     215.279E+06    -40.7663E+06    -61.6122E+06    -265.692E+06    -61.6376E+06    -265.666E+06    -40.7663E+06     2.16593E+06
            1383     75.2684E-03     4.71945E-03     75.1202E-03     116.047E-03    -57.8206E-03    -58.2266E-03    -57.7902E-03     116.017E-03    -58.2266E-03     4.45453E-03     126.101E-03     210.022E+06    -28.8271E+06    -56.1607E+06    -251.145E+06    -56.1826E+06    -251.123E+06    -28.8271E+06     1.99094E+06
            1384     75.3391E-03     5.66279E-03     75.1260E-03     116.038E-03    -57.8274E-03    -58.2103E-03    -57.7719E-03     115.982E-03    -58.2103E-03     6.12725E-03     130.705E-03     200.106E+06    -19.1764E+06    -50.8445E+06    -233.218E+06    -50.8573E+06    -233.205E+06    -19.1764E+06     1.43104E+06
            1385     75.4230E-03     6.60714E-03     75.1330E-03     115.941E-03    -57.7505E-03    -58.1905E-03    -57.6525E-03     115.843E-03    -58.1905E-03     8.13732E-03     136.534E-03     190.553E+06    -11.7957E+06    -45.5404E+06    -216.952E+06    -45.5551E+06    -216.937E+06    -11.7957E+06     1.39045E+06
            1386     75.5217E-03     7.55213E-03     75.1432E-03     115.722E-03    -57.5978E-03    -58.1238E-03    -57.4311E-03     115.555E-03    -58.1238E-03     10.6633E-03     143.315E-03     166.279E+06    -8.97204E+06    -41.6053E+06    -189.136E+06    -41.6290E+06    -189.112E+06    -8.97204E+06     1.74146E+06
            1387     75.6334E-03     8.49565E-03     75.1548E-03     115.712E-03    -57.6552E-03    -58.0572E-03    -57.4094E-03     115.439E-03    -58.0294E-03     13.6518E-03     151.771E-03     130.148E+06    -9.33266E+06    -38.5071E+06    -151.557E+06    -38.5561E+06    -151.508E+06    -9.33266E+06     2.13916E+06
            1388     75.7618E-03     9.43983E-03     75.1714E-03     115.864E-03    -57.7553E-03    -58.1084E-03    -57.3989E-03     115.363E-03    -57.9636E-03     18.3812E-03     163.335E-03     98.3017E+06    -7.81705E+06    -34.7010E+06    -116.713E+06    -34.7917E+06    -116.622E+06    -7.81705E+06     2.54040E+06
            1389     75.9082E-03     10.3844E-03     75.1946E-03     115.646E-03    -57.6435E-03    -58.0021E-03    -57.0129E-03     114.898E-03    -57.8852E-03     22.6745E-03     176.884E-03     59.5092E+06    -5.85746E+06    -30.4994E+06    -72.9638E+06    -30.6598E+06    -72.8035E+06    -5.85746E+06     2.05522E+06
            1390     76.0670E-03     11.3293E-03     75.2186E-03     115.463E-03    -57.4973E-03    -57.9657E-03    -56.5627E-03     114.328E-03    -57.7650E-03     27.6906E-03     193.743E-03     39.9755E+06     9.43131E+06    -16.2382E+06    -36.5864E+06    -27.9754E+06    -10.8896E+06    -4.52834E+06     1.48418E+06
            1391     76.2470E-03     12.2750E-03     75.2525E-03     116.790E-03    -57.5873E-03    -59.2024E-03    -56.7183E-03     114.406E-03    -57.6879E-03     39.8556E-03     219.049E-03     80.8811E+06     64.7148E+06     5.36262E+06    -27.0771E+06    -27.0231E+06     64.6608E+06     5.36262E+06     1.59681E+06
            1392     76.4576E-03     13.2175E-03     75.3065E-03     119.379E-03    -57.7586E-03    -61.6207E-03    -56.8953E-03     114.654E-03    -57.7586E-03     57.1056E-03     257.725E-03     118.083E+06     109.227E+06     26.9446E+06    -25.5034E+06    -25.4443E+06     109.168E+06     26.9446E+06     2.08100E+06
            1393     76.6978E-03     14.1627E-03     75.3789E-03     128.889E-03    -57.9146E-03    -70.9748E-03    -56.7300E-03     114.645E-03    -57.9146E-03     98.7789E-03     318.080E-03     119.987E+06     116.766E+06     56.2722E+06    -20.5578E+06    -20.5302E+06     116.739E+06     56.2722E+06     1.60593E+06
            1394     77.0218E-03     15.1077E-03     75.5256E-03     145.053E-03    -58.0730E-03    -86.9800E-03    -56.6180E-03     114.691E-03    -58.0730E-03     155.493E-03     426.639E-03     128.551E+06     124.232E+06     95.0302E+06    -15.1576E+06    -15.1341E+06     124.208E+06     95.0302E+06    -135.431E+03
            1395     77.4039E-03     16.0548E-03     75.7206E-03     137.108E-03    -58.1378E-03    -78.9705E-03    -55.8168E-03     113.955E-03    -58.1378E-03     127.088E-03     428.936E-03     137.147E+06     134.171E+06     123.418E+06    -8.02748E+06    -8.00394E+06     134.148E+06     123.418E+06    -514.595E+03
            1396     76.2397E-03     943.403E-06     76.2339E-03     116.204E-03    -57.9138E-03    -58.2904E-03    -58.0349E-03     116.202E-03    -58.1675E-03     766.888E-06     117.411E-03     209.473E+06    -72.4638E+06    -74.4529E+06    -282.916E+06    -74.0526E+06    -282.899E+06    -72.8812E+06     125.271E+03
            1397     76.2582E-03     1.88802E-03     76.2348E-03     116.257E-03    -58.0469E-03    -58.2106E-03    -58.1096E-03     116.255E-03    -58.1458E-03     1.16985E-03     118.457E-03     213.420E+06    -65.3271E+06    -71.8418E+06    -281.900E+06    -71.8480E+06    -281.894E+06    -65.3271E+06     1.11631E+06
            1398     76.2884E-03     2.83101E-03     76.2359E-03     116.180E-03    -57.9879E-03    -58.1917E-03    -57.9899E-03     116.172E-03    -58.1820E-03     2.17681E-03     120.042E-03     214.970E+06    -53.9732E+06    -68.0716E+06    -275.609E+06    -68.0850E+06    -275.596E+06    -53.9732E+06     1.59358E+06
            1399     76.3326E-03     3.77540E-03     76.2392E-03     116.064E-03    -57.8719E-03    -58.1925E-03    -57.8579E-03     116.050E-03    -58.1925E-03     3.09947E-03     122.508E-03     214.980E+06    -41.5752E+06    -62.7658E+06    -266.351E+06    -62.7781E+06    -266.338E+06    -41.5752E+06     1.32678E+06
            1400     76.3879E-03     4.71913E-03     76.2420E-03     115.983E-03    -57.7966E-03    -58.1860E-03    -57.7647E-03     115.951E-03    -58.1860E-03     4.51555E-03     126.009E-03     210.084E+06    -29.4159E+06    -56.2894E+06    -251.621E+06    -56.3057E+06    -251.605E+06    -29.4159E+06     1.49206E+06
            1401     76.4581E-03     5.66390E-03     76.2481E-03     115.960E-03    -57.7891E-03    -58.1712E-03    -57.7244E-03     115.896E-03    -58.1712E-03     6.64434E-03     130.613E-03     199.813E+06    -19.4268E+06    -51.0994E+06    -233.160E+06    -51.1240E+06    -233.136E+06    -19.4268E+06     2.01937E+06
            1402     76.5408E-03     6.60749E-03     76.2550E-03     115.909E-03    -57.7534E-03    -58.1556E-03    -57.6552E-03     115.811E-03    -58.1556E-03     8.22300E-03     136.536E-03     190.231E+06    -11.9719E+06    -46.5308E+06    -217.096E+06    -46.5523E+06    -217.075E+06    -11.9719E+06     1.43768E+06
            1403     76.6370E-03     7.55148E-03     76.2641E-03     115.790E-03    -57.6882E-03    -58.1019E-03    -57.5252E-03     115.627E-03    -58.1019E-03     10.5128E-03     143.422E-03     165.949E+06    -8.00172E+06    -41.4042E+06    -188.100E+06    -41.4277E+06    -188.076E+06    -8.00172E+06     1.40733E+06
            1404     76.7491E-03     8.49659E-03     76.2773E-03     115.672E-03    -57.6288E-03    -58.0436E-03    -57.3881E-03     115.404E-03    -58.0158E-03     13.5359E-03     151.901E-03     132.230E+06    -8.38362E+06    -37.0596E+06    -152.598E+06    -37.0987E+06    -152.559E+06    -8.38362E+06     1.66937E+06
            1405     76.8752E-03     9.44034E-03     76.2934E-03     115.502E-03    -57.5454E-03    -57.9563E-03    -57.0510E-03     114.979E-03    -57.9285E-03     18.6127E-03     162.960E-03     99.6395E+06    -7.83553E+06    -33.5456E+06    -117.724E+06    -33.6023E+06    -117.667E+06    -7.83553E+06     1.76738E+06
            1406     77.0191E-03     10.3851E-03     76.3158E-03     115.594E-03    -57.5721E-03    -58.0224E-03    -57.0023E-03     114.839E-03    -57.8363E-03     22.8350E-03     176.616E-03     58.6968E+06    -5.66456E+06    -31.3109E+06    -71.6916E+06    -31.4385E+06    -71.5640E+06    -5.66456E+06     1.66694E+06
            1407     77.1766E-03     11.3298E-03     76.3405E-03     116.056E-03    -57.6532E-03    -58.4032E-03    -57.1879E-03     114.936E-03    -57.7485E-03     27.5533E-03     194.380E-03     41.9267E+06     9.95217E+06    -17.4989E+06    -38.1272E+06    -30.4413E+06     -10.665E+06    -4.56759E+06     1.90903E+06
            1408     77.3553E-03     12.2724E-03     76.3756E-03     117.024E-03    -57.7027E-03    -59.3214E-03    -56.8623E-03     114.565E-03    -57.7027E-03     40.4279E-03     219.387E-03     81.9664E+06     63.8186E+06     4.77678E+06    -29.4371E+06    -29.3016E+06     63.6830E+06     4.77678E+06     3.28365E+06
            1409     77.5637E-03     13.2184E-03     76.4291E-03     118.967E-03    -57.7514E-03    -61.2155E-03    -56.1956E-03     113.947E-03    -57.7514E-03     58.5833E-03     257.216E-03     118.273E+06     108.781E+06     26.7840E+06    -26.3308E+06    -26.2540E+06     108.704E+06     26.7840E+06     2.90088E+06
            1410     77.8018E-03     14.1619E-03     76.5020E-03     127.914E-03    -57.8555E-03    -70.0589E-03    -55.8277E-03     113.683E-03    -57.8555E-03     98.7177E-03     317.461E-03     121.708E+06     118.959E+06     57.4629E+06    -20.3197E+06    -20.3041E+06     118.943E+06     57.4629E+06     889.718E+03
            1411     78.1176E-03     15.1118E-03     76.6419E-03     145.177E-03    -57.9837E-03    -87.1932E-03    -56.4834E-03     114.467E-03    -57.9837E-03     156.241E-03     426.038E-03     128.928E+06     126.333E+06     96.8812E+06    -13.5055E+06    -13.4986E+06     126.326E+06     96.8812E+06     391.304E+03
            1412     78.5095E-03     16.0543E-03     76.8505E-03     137.744E-03    -58.0571E-03    -79.6869E-03    -56.4893E-03     114.546E-03    -58.0571E-03     126.314E-03     428.215E-03     136.494E+06     134.179E+06     123.112E+06    -7.50654E+06    -7.50141E+06     134.173E+06     123.112E+06    -196.529E+03
            1413     77.3613E-03     944.018E-06     77.3555E-03     116.200E-03    -57.7832E-03    -58.4169E-03    -58.1576E-03     116.198E-03    -58.0403E-03     1.15038E-03     117.483E-03     210.696E+06    -72.8489E+06    -75.7022E+06    -284.945E+06    -75.6219E+06    -284.939E+06    -72.9352E+06     936.548E+03
            1414     77.3797E-03     1.88735E-03     77.3567E-03     116.108E-03    -57.9796E-03    -58.1283E-03    -57.9869E-03     116.106E-03    -58.1186E-03     1.18993E-03     118.316E-03     213.253E+06    -65.8015E+06    -72.4423E+06    -282.295E+06    -72.4467E+06    -282.291E+06    -65.8015E+06     661.947E+03
            1415     77.4099E-03     2.83182E-03     77.3581E-03     116.033E-03    -57.9061E-03    -58.1267E-03    -57.9081E-03     116.025E-03    -58.1170E-03     2.22064E-03     119.887E-03     214.153E+06    -55.7426E+06    -67.7166E+06    -275.595E+06    -67.7252E+06    -275.586E+06    -55.7426E+06     650.350E+03
            1416     77.4525E-03     3.77550E-03     77.3604E-03     115.967E-03    -57.8346E-03    -58.1324E-03    -57.8190E-03     115.951E-03    -58.1324E-03     3.25220E-03     122.387E-03     214.987E+06    -41.8605E+06    -62.4750E+06    -266.373E+06    -62.4955E+06    -266.352E+06    -41.8605E+06     1.33988E+06
            1417     77.5080E-03     4.71989E-03     77.3641E-03     115.949E-03    -57.8085E-03    -58.1405E-03    -57.7785E-03     115.919E-03    -58.1405E-03     4.49777E-03     126.044E-03     210.310E+06    -29.2977E+06    -57.5850E+06    -252.290E+06    -57.6062E+06    -252.268E+06    -29.2977E+06     1.61115E+06
            1418     77.5761E-03     5.66357E-03     77.3691E-03     115.802E-03    -57.6740E-03    -58.1278E-03    -57.6141E-03     115.742E-03    -58.1278E-03     6.34992E-03     130.481E-03     200.034E+06    -18.8874E+06    -51.6144E+06    -233.249E+06    -51.6319E+06    -233.231E+06    -18.8874E+06     1.57418E+06
            1419     77.6592E-03     6.60822E-03     77.3775E-03     115.862E-03    -57.7539E-03    -58.1084E-03    -57.6536E-03     115.762E-03    -58.1084E-03     8.29929E-03     136.446E-03     190.130E+06    -11.3811E+06    -46.1572E+06    -216.483E+06    -46.1723E+06    -216.467E+06    -11.3811E+06     1.13978E+06
            1420     77.7534E-03     7.55214E-03     77.3857E-03     115.962E-03    -57.8930E-03    -58.0694E-03    -57.7198E-03     115.789E-03    -58.0694E-03     10.8367E-03     143.661E-03     166.477E+06    -8.38688E+06    -41.3089E+06    -188.858E+06    -41.3246E+06    -188.843E+06    -8.38688E+06     993.961E+03
            1421     77.8644E-03     8.49526E-03     77.3996E-03     115.538E-03    -57.5418E-03    -57.9965E-03    -57.2755E-03     115.272E-03    -57.9965E-03     13.5170E-03     151.914E-03     133.061E+06    -7.71603E+06    -36.6792E+06    -152.852E+06    -36.6985E+06    -152.833E+06    -7.71603E+06     1.11310E+06
            1422     77.9872E-03     9.44111E-03     77.4136E-03     115.466E-03    -57.4657E-03    -58.0002E-03    -57.0668E-03     114.972E-03    -57.9053E-03     18.0983E-03     162.915E-03     99.5532E+06    -7.67368E+06    -34.2611E+06    -117.746E+06    -34.3014E+06    -117.706E+06    -7.67368E+06     1.44684E+06
            1423     78.1314E-03     10.3861E-03     77.4380E-03     115.662E-03    -57.5630E-03    -58.0986E-03    -57.1111E-03     114.929E-03    -57.8176E-03     22.4759E-03     176.732E-03     57.9617E+06    -6.16956E+06    -32.1473E+06    -71.3254E+06    -32.2921E+06    -71.1805E+06    -6.16956E+06     1.78835E+06
            1424     78.2877E-03     11.3288E-03     77.4636E-03     115.903E-03    -57.5671E-03    -58.3355E-03    -56.9841E-03     114.712E-03    -57.7275E-03     28.2646E-03     194.214E-03     39.9375E+06     9.10037E+06    -18.0745E+06    -36.6090E+06    -29.7313E+06    -11.0281E+06    -4.82378E+06     2.67206E+06
            1425     78.4637E-03     12.2744E-03     77.4977E-03     116.643E-03    -57.6491E-03    -58.9939E-03    -56.4367E-03     114.086E-03    -57.6491E-03     41.2909E-03     219.174E-03     78.6423E+06     62.0734E+06     3.08935E+06    -26.8266E+06    -26.6385E+06     61.8852E+06     3.08935E+06     3.65249E+06
            1426     78.6690E-03     13.2188E-03     77.5504E-03     118.229E-03    -57.6610E-03    -60.5683E-03    -55.4834E-03     113.144E-03    -57.6610E-03     58.7239E-03     256.761E-03     116.748E+06     110.171E+06     26.8232E+06    -22.6419E+06    -22.5786E+06     110.108E+06     26.8232E+06     2.68237E+06
            1427     78.9052E-03     14.1673E-03     77.6229E-03     127.867E-03    -57.7743E-03    -70.0930E-03    -56.1068E-03     113.881E-03    -57.7743E-03     98.2940E-03     317.698E-03     123.704E+06     121.467E+06     60.4609E+06    -19.6736E+06    -19.6406E+06     121.434E+06     60.4609E+06     1.46138E+06
            1428     79.2182E-03     15.1088E-03     77.7641E-03     145.315E-03    -57.9292E-03    -87.3861E-03    -56.8301E-03     114.759E-03    -57.9292E-03     155.809E-03     426.959E-03     131.497E+06     127.040E+06     98.1663E+06    -15.5535E+06    -15.5308E+06     127.018E+06     98.1663E+06     863.091E+03
            1429     79.6075E-03     16.0585E-03     77.9710E-03     137.667E-03    -58.0073E-03    -79.6594E-03    -56.4500E-03     114.457E-03    -58.0073E-03     125.859E-03     428.231E-03     137.193E+06     134.262E+06     122.410E+06    -8.47113E+06    -8.46224E+06     134.253E+06     122.410E+06    -433.009E+03
            1430     78.4841E-03     943.646E-06     78.4784E-03     116.032E-03    -57.7262E-03    -58.3057E-03    -58.2425E-03     116.031E-03    -57.7882E-03     843.629E-06     117.266E-03     212.821E+06    -72.1344E+06    -74.3238E+06    -286.034E+06    -74.2421E+06    -286.030E+06    -72.2206E+06     579.049E+03
            1431     78.5006E-03     1.88790E-03     78.4779E-03     115.968E-03    -57.8947E-03    -58.0729E-03    -57.9290E-03     115.964E-03    -58.0353E-03     1.32281E-03     118.130E-03     213.593E+06    -65.5407E+06    -71.7484E+06    -282.158E+06    -71.7527E+06    -282.153E+06    -65.5407E+06     396.503E+03
            1432     78.5310E-03     2.83166E-03     78.4799E-03     115.957E-03    -57.8686E-03    -58.0884E-03    -57.8998E-03     115.951E-03    -58.0507E-03     2.09757E-03     119.801E-03     213.851E+06    -55.8719E+06    -68.6300E+06    -275.777E+06    -68.6347E+06    -275.773E+06    -55.8719E+06     460.917E+03
            1433     78.5728E-03     3.77599E-03     78.4820E-03     115.926E-03    -57.8445E-03    -58.0819E-03    -57.8307E-03     115.913E-03    -58.0819E-03     2.98182E-03     122.349E-03     215.070E+06    -42.9062E+06    -63.7059E+06    -267.585E+06    -63.7223E+06    -267.568E+06    -42.9062E+06     1.17415E+06
            1434     78.6276E-03     4.71974E-03     78.4858E-03     115.917E-03    -57.8158E-03    -58.1016E-03    -57.7861E-03     115.888E-03    -58.1016E-03     4.49001E-03     126.033E-03     209.946E+06    -29.6366E+06    -57.4159E+06    -252.059E+06    -57.4319E+06    -252.043E+06    -29.6366E+06     1.35273E+06
            1435     78.6954E-03     5.66383E-03     78.4913E-03     115.766E-03    -57.6720E-03    -58.0943E-03    -57.6160E-03     115.710E-03    -58.0943E-03     6.15327E-03     130.440E-03     199.496E+06    -19.6190E+06    -51.6652E+06    -233.181E+06    -51.6709E+06    -233.176E+06    -19.6190E+06     965.309E+03
            1436     78.7755E-03     6.60826E-03     78.4978E-03     115.706E-03    -57.6346E-03    -58.0715E-03    -57.5269E-03     115.598E-03    -58.0715E-03     8.52019E-03     136.257E-03     189.244E+06    -11.9827E+06    -46.4781E+06    -216.086E+06    -46.4864E+06    -216.077E+06    -11.9827E+06     891.120E+03
            1437     78.8718E-03     7.55220E-03     78.5094E-03     115.719E-03    -57.6981E-03    -58.0207E-03    -57.5265E-03     115.547E-03    -58.0207E-03     10.8389E-03     143.440E-03     166.312E+06    -8.47633E+06    -41.8208E+06    -188.926E+06    -41.8298E+06    -188.917E+06    -8.47633E+06     814.953E+03
            1438     78.9783E-03     8.49738E-03     78.5198E-03     115.822E-03    -57.6702E-03    -58.1523E-03    -57.6005E-03     115.558E-03    -57.9575E-03     13.4327E-03     152.072E-03     131.836E+06    -8.43763E+06    -38.3382E+06    -152.629E+06    -38.3517E+06    -152.616E+06    -8.43763E+06     1.00901E+06
            1439     79.1017E-03     9.44064E-03     78.5363E-03     115.834E-03    -57.6367E-03    -58.1977E-03    -57.4423E-03     115.350E-03    -57.9080E-03     18.0618E-03     163.453E-03     99.1520E+06    -7.64490E+06    -34.7924E+06    -117.509E+06    -34.8101E+06    -117.491E+06    -7.64490E+06     1.03872E+06
            1440     79.2431E-03     10.3836E-03     78.5599E-03     115.411E-03    -57.4931E-03    -57.9180E-03    -56.8388E-03     114.662E-03    -57.8231E-03     22.6427E-03     176.608E-03     58.5915E+06    -6.64937E+06    -30.9225E+06    -72.6573E+06    -31.0545E+06    -72.5253E+06    -6.64937E+06     1.40272E+06
            1441     79.3970E-03     11.3310E-03     78.5843E-03     115.410E-03    -57.5126E-03    -57.8977E-03    -56.5199E-03     114.222E-03    -57.7024E-03     28.2708E-03     194.019E-03     37.2218E+06     6.96590E+06    -16.4859E+06    -35.8993E+06    -27.7406E+06    -12.7863E+06    -4.89240E+06     1.78059E+06
            1442     79.5731E-03     12.2750E-03     78.6206E-03     116.115E-03    -57.6023E-03    -58.5124E-03    -56.1204E-03     113.723E-03    -57.6023E-03     39.8609E-03     219.059E-03     76.7543E+06     61.7890E+06     4.67112E+06    -24.9608E+06    -24.8476E+06     61.6757E+06     4.67112E+06     2.44420E+06
            1443     79.7738E-03     13.2212E-03     78.6706E-03     118.243E-03    -57.6179E-03    -60.6256E-03    -55.8471E-03     113.465E-03    -57.6179E-03     56.9749E-03     257.141E-03     117.620E+06     111.244E+06     27.5955E+06    -22.6010E+06    -22.5137E+06     111.157E+06     27.5955E+06     3.20826E+06
            1444     80.0080E-03     14.1648E-03     78.7441E-03     127.849E-03    -57.7574E-03    -70.0913E-03    -56.4980E-03     114.255E-03    -57.7574E-03     96.7328E-03     317.809E-03     124.094E+06     121.646E+06     59.6571E+06    -20.1570E+06    -20.0784E+06     121.568E+06     59.6571E+06     3.10909E+06
            1445     80.3229E-03     15.1125E-03     78.8884E-03     144.502E-03    -57.9301E-03    -86.5720E-03    -56.6377E-03     114.568E-03    -57.9301E-03     153.825E-03     426.650E-03     132.014E+06     128.874E+06     98.9384E+06    -14.4874E+06    -14.4533E+06     128.840E+06     98.9384E+06     1.82893E+06
            1446     80.7022E-03     16.0550E-03     79.0890E-03     137.654E-03    -58.0144E-03    -79.6400E-03    -56.5237E-03     114.538E-03    -58.0144E-03     126.381E-03     428.235E-03     137.847E+06     136.194E+06     123.956E+06    -7.36215E+06    -7.35541E+06     136.187E+06     123.956E+06    -125.146E+03
            1447     79.6045E-03     944.085E-06     79.5989E-03     115.854E-03    -57.6910E-03    -58.1630E-03    -58.1036E-03     115.853E-03    -57.7495E-03     770.569E-06     116.952E-03     212.607E+06    -72.9746E+06    -75.4219E+06    -286.790E+06    -75.0118E+06    -286.786E+06    -73.3888E+06     327.756E+03
            1448     79.6222E-03     1.88817E-03     79.5998E-03     115.955E-03    -57.8487E-03    -58.1059E-03    -57.9758E-03     115.952E-03    -57.9765E-03     1.09255E-03     118.085E-03     213.298E+06    -65.9079E+06    -72.6889E+06    -282.497E+06    -72.6940E+06    -282.492E+06    -65.9079E+06     757.442E+03
            1449     79.6521E-03     2.83193E-03     79.6017E-03     115.961E-03    -57.8899E-03    -58.0709E-03    -57.9216E-03     115.955E-03    -58.0333E-03     1.89337E-03     119.791E-03     214.522E+06    -54.9179E+06    -68.9300E+06    -276.068E+06    -68.9367E+06    -276.062E+06    -54.9179E+06     1.12600E+06
            1450     79.6930E-03     3.77564E-03     79.6035E-03     115.886E-03    -57.8208E-03    -58.0656E-03    -57.8075E-03     115.873E-03    -58.0656E-03     2.95483E-03     122.275E-03     215.029E+06    -43.1698E+06    -64.1958E+06    -267.921E+06    -64.1990E+06    -267.918E+06    -43.1698E+06     616.400E+03
            1451     79.7476E-03     4.71994E-03     79.6078E-03     115.744E-03    -57.6781E-03    -58.0664E-03    -57.6473E-03     115.714E-03    -58.0664E-03     4.52124E-03     125.734E-03     208.482E+06    -31.4332E+06    -58.6026E+06    -252.132E+06    -58.6058E+06    -252.129E+06    -31.4332E+06     633.057E+03
            1452     79.8137E-03     5.66432E-03     79.6124E-03     115.770E-03    -57.7115E-03    -58.0588E-03    -57.6559E-03     115.715E-03    -58.0588E-03     6.16512E-03     130.457E-03     197.929E+06    -20.5520E+06    -53.0045E+06    -232.683E+06    -53.0106E+06    -232.677E+06    -20.5520E+06     788.113E+03
            1453     79.8939E-03     6.60810E-03     79.6201E-03     115.716E-03    -57.6659E-03    -58.0502E-03    -57.5605E-03     115.611E-03    -58.0502E-03     8.40120E-03     136.362E-03     188.765E+06    -12.1241E+06    -47.1078E+06    -215.928E+06    -47.1113E+06    -215.925E+06    -12.1241E+06     350.940E+03
            1454     79.9873E-03     7.55305E-03     79.6299E-03     115.685E-03    -57.6435E-03    -58.0413E-03    -57.5210E-03     115.524E-03    -58.0032E-03     10.5247E-03     143.350E-03     165.628E+06    -8.73352E+06    -42.2299E+06    -188.541E+06    -42.2370E+06    -188.534E+06    -8.73352E+06     148.558E+03
            1455     80.0944E-03     8.49656E-03     79.6424E-03     115.886E-03    -57.7074E-03    -58.1789E-03    -57.6761E-03     115.622E-03    -57.9460E-03     13.3505E-03     152.079E-03     131.692E+06    -8.33302E+06    -37.8175E+06    -152.257E+06    -37.8254E+06    -152.249E+06    -8.33302E+06     314.914E+03
            1456     80.2170E-03     9.43993E-03     79.6596E-03     115.683E-03    -57.5927E-03    -58.0898E-03    -57.3132E-03     115.208E-03    -57.8950E-03     17.9273E-03     163.237E-03     99.2685E+06    -7.58753E+06    -34.1172E+06    -117.365E+06    -34.1209E+06    -117.361E+06    -7.58753E+06     525.610E+03
            1457     80.3533E-03     10.3868E-03     79.6792E-03     115.494E-03    -57.6075E-03    -57.8862E-03    -56.9280E-03     114.734E-03    -57.8057E-03     22.7473E-03     176.587E-03     58.2348E+06    -7.75114E+06    -31.4480E+06    -73.4474E+06    -31.5463E+06     -73.349E+06    -7.75114E+06     894.058E+03
            1458     80.5090E-03     11.3290E-03     79.7080E-03     115.561E-03    -57.6696E-03    -57.8918E-03    -56.7053E-03     114.404E-03    -57.6991E-03     28.0833E-03     194.094E-03     37.4348E+06     5.42175E+06    -17.0754E+06    -37.7607E+06    -29.1427E+06    -14.1196E+06    -6.15207E+06     978.927E+03
            1459     80.6795E-03     12.2746E-03     79.7403E-03     116.208E-03    -57.6191E-03    -58.5889E-03    -56.3021E-03     113.921E-03    -57.6191E-03     38.9358E-03     219.002E-03     77.4240E+06     60.8792E+06     4.33013E+06    -26.8094E+06    -26.7632E+06     60.8329E+06     4.33013E+06     1.72533E+06
            1460     80.8807E-03     13.2195E-03     79.7931E-03     118.556E-03    -57.6444E-03    -60.9118E-03    -56.1434E-03     113.788E-03    -57.6444E-03     56.9359E-03     257.021E-03     117.654E+06     109.800E+06     25.8320E+06    -24.1832E+06    -24.0703E+06     109.687E+06     25.8320E+06     3.76905E+06
            1461     81.1139E-03     14.1640E-03     79.8677E-03     127.901E-03    -57.7880E-03    -70.1134E-03    -56.4328E-03     114.221E-03    -57.7880E-03     97.0275E-03     317.117E-03     124.446E+06     122.067E+06     58.6392E+06    -20.2045E+06    -20.0218E+06     121.885E+06     58.6392E+06     4.86620E+06
            1462     81.4204E-03     15.1082E-03     80.0064E-03     144.592E-03    -57.9645E-03    -86.6274E-03    -56.7848E-03     114.749E-03    -57.9645E-03     153.775E-03     427.017E-03     134.397E+06     131.740E+06     99.0329E+06    -15.0251E+06    -14.9198E+06     131.635E+06     99.0329E+06     2.18261E+06
            1463     81.8047E-03     16.0578E-03     80.2131E-03     137.650E-03    -58.0579E-03    -79.5926E-03    -56.5302E-03     114.588E-03    -58.0579E-03     126.617E-03     429.116E-03     139.181E+06      138.05E+06     124.603E+06    -7.33084E+06    -7.32598E+06     138.045E+06     124.603E+06    -353.460E+03
            1464     80.7261E-03     944.261E-06     80.7206E-03     115.830E-03    -57.6166E-03    -58.2134E-03    -58.1779E-03     115.829E-03    -57.6509E-03     925.047E-06     116.811E-03     211.211E+06    -74.5821E+06    -78.4717E+06    -287.706E+06    -78.0615E+06    -287.702E+06    -74.9963E+06     565.550E+03
            1465     80.7441E-03     1.88737E-03     80.7220E-03     115.982E-03    -57.8758E-03    -58.1063E-03    -58.0003E-03     115.980E-03    -57.9794E-03     1.17186E-03     118.069E-03     212.595E+06    -66.6100E+06    -74.6401E+06    -283.095E+06    -74.6451E+06    -283.090E+06    -66.6100E+06     884.100E+03
            1466     80.7722E-03     2.83184E-03     80.7225E-03     115.878E-03    -57.8166E-03    -58.0616E-03    -57.8458E-03     115.872E-03    -58.0265E-03     1.89520E-03     119.714E-03     213.915E+06    -56.2682E+06    -69.8042E+06    -276.614E+06    -69.8074E+06    -276.611E+06    -56.2682E+06     661.681E+03
            1467     80.8144E-03     3.77596E-03     80.7261E-03     115.811E-03    -57.7665E-03    -58.0444E-03    -57.7535E-03     115.798E-03    -58.0444E-03     2.93907E-03     122.218E-03     214.177E+06    -43.7692E+06    -64.6044E+06    -267.565E+06    -64.6070E+06    -267.563E+06    -43.7692E+06     648.069E+03
            1468     80.8658E-03     4.72015E-03     80.7280E-03     115.795E-03    -57.7436E-03    -58.0518E-03    -57.7156E-03     115.767E-03    -58.0518E-03     4.31845E-03     125.782E-03     207.552E+06    -31.7217E+06    -59.4466E+06    -251.714E+06    -59.4513E+06    -251.709E+06    -31.7217E+06     367.114E+03
            1469     80.9335E-03     5.66421E-03     80.7351E-03     115.793E-03    -57.7405E-03    -58.0525E-03    -57.6872E-03     115.740E-03    -58.0525E-03     6.01237E-03     130.506E-03     196.634E+06    -21.2561E+06    -53.3818E+06    -231.956E+06    -53.3860E+06    -231.952E+06    -21.2561E+06    -200.630E+03
            1470     81.0111E-03     6.60848E-03     80.7411E-03     115.909E-03    -57.8076E-03    -58.1019E-03    -57.7552E-03     115.816E-03    -58.0610E-03     7.97343E-03     136.522E-03     187.429E+06    -12.5705E+06    -47.3900E+06    -214.961E+06    -47.3939E+06    -214.957E+06    -12.5705E+06    -433.108E+03
            1471     81.1043E-03     7.55214E-03     80.7519E-03     115.848E-03    -57.7340E-03    -58.1135E-03    -57.6539E-03     115.688E-03    -58.0345E-03     10.4122E-03     143.535E-03     165.548E+06    -9.04009E+06    -41.8992E+06    -188.551E+06    -41.9061E+06    -188.544E+06    -9.04009E+06    -671.125E+03
            1472     81.2106E-03     8.49620E-03     80.7649E-03     115.490E-03    -57.4927E-03    -57.9973E-03    -57.2693E-03     115.228E-03    -57.9592E-03     13.3136E-03     151.778E-03     131.907E+06    -8.86226E+06    -37.4655E+06    -152.708E+06    -37.4731E+06    -152.701E+06    -8.86226E+06    -640.377E+03
            1473     81.3300E-03     9.44212E-03     80.7800E-03     115.512E-03    -57.5732E-03    -57.9392E-03    -57.1742E-03     115.054E-03    -57.8802E-03     17.5508E-03     162.983E-03     99.2111E+06    -7.74971E+06    -34.1584E+06    -117.430E+06    -34.1661E+06    -117.422E+06    -7.74971E+06    -156.143E+03
            1474     81.4668E-03     10.3840E-03     80.8023E-03     115.713E-03    -57.7715E-03    -57.9412E-03    -57.1676E-03     114.968E-03    -57.8001E-03     22.5637E-03     177.014E-03     59.1451E+06    -7.31285E+06    -31.4382E+06    -74.0713E+06    -31.5329E+06    -73.9766E+06    -7.31285E+06     643.193E+03
            1475     81.6192E-03     11.3305E-03     80.8289E-03     115.838E-03    -57.7132E-03    -58.1253E-03    -56.9651E-03     114.678E-03    -57.7132E-03     28.1337E-03     194.193E-03     39.5173E+06     5.77028E+06    -17.8660E+06    -39.8262E+06    -30.5866E+06    -14.7833E+06    -6.55210E+06     1.66176E+06
            1476     81.7890E-03     12.2744E-03     80.8627E-03     116.590E-03    -57.6561E-03    -58.9334E-03    -56.6405E-03     114.297E-03    -57.6561E-03     39.1139E-03     219.497E-03     79.0558E+06     60.2695E+06     3.59642E+06    -29.5438E+06    -29.4917E+06     60.2174E+06     3.59642E+06     1.78756E+06
            1477     81.9879E-03     13.2186E-03     80.9153E-03     118.348E-03    -57.6795E-03    -60.6687E-03    -55.8492E-03     113.529E-03    -57.6795E-03     57.0757E-03     257.096E-03     117.675E+06     108.402E+06     24.7265E+06    -25.7992E+06    -25.7264E+06     108.329E+06     24.7265E+06     2.82817E+06
            1478     82.2174E-03     14.1655E-03     80.9879E-03     127.400E-03    -57.7829E-03    -69.6171E-03    -55.8338E-03     113.617E-03    -57.7829E-03     97.2212E-03     316.907E-03     123.554E+06     121.650E+06     56.8965E+06    -19.7623E+06    -19.6128E+06     121.501E+06     56.8965E+06     3.90254E+06
            1479     82.5262E-03     15.1119E-03     81.1308E-03     145.611E-03    -57.9514E-03    -87.6593E-03    -57.1132E-03     115.065E-03    -57.9514E-03     156.046E-03     427.422E-03     134.850E+06     135.664E+06     100.677E+06    -12.2271E+06    -12.0222E+06     135.459E+06     100.677E+06     3.50165E+06
            1480     82.9028E-03     16.0516E-03     81.3340E-03     138.540E-03    -58.0599E-03    -80.4801E-03    -56.8866E-03     114.946E-03    -58.0599E-03     128.138E-03     429.505E-03     139.576E+06     140.810E+06     126.575E+06    -5.28164E+06    -5.16324E+06     140.692E+06     126.575E+06     1.76526E+06
            1481     81.8483E-03     943.601E-06     81.8428E-03     115.848E-03    -57.7018E-03    -58.1460E-03    -58.0382E-03     115.846E-03    -57.8078E-03     1.14052E-03     116.905E-03     211.581E+06    -74.4259E+06    -79.0006E+06    -288.252E+06    -78.3097E+06    -288.247E+06    -75.1217E+06     888.419E+03
            1482     81.8646E-03     1.88862E-03     81.8428E-03     115.935E-03    -57.8705E-03    -58.0641E-03    -57.9514E-03     115.932E-03    -57.9807E-03     1.17643E-03     117.980E-03     212.882E+06    -65.7214E+06    -74.5231E+06    -282.856E+06    -74.5273E+06    -282.852E+06    -65.7214E+06     651.080E+03
            1483     81.8944E-03     2.83164E-03     81.8454E-03     115.875E-03    -57.8189E-03    -58.0563E-03    -57.8519E-03     115.870E-03    -58.0180E-03     1.72656E-03     119.754E-03     214.141E+06    -56.0108E+06    -70.2156E+06    -276.886E+06    -70.2174E+06    -276.884E+06    -56.0108E+06     411.870E+03
            1484     81.9329E-03     3.77615E-03     81.8458E-03     115.890E-03    -57.8440E-03    -58.0463E-03    -57.8347E-03     115.878E-03    -58.0431E-03     2.86953E-03     122.319E-03     213.467E+06    -44.7748E+06    -65.3778E+06    -267.765E+06    -65.3811E+06    -267.762E+06    -44.7748E+06     611.726E+03
            1485     81.9876E-03     4.71981E-03     81.8517E-03     115.979E-03    -57.9098E-03    -58.0694E-03    -57.8839E-03     115.953E-03    -58.0694E-03     4.17881E-03     125.968E-03     205.150E+06    -33.0119E+06    -59.4668E+06    -250.081E+06    -59.4730E+06    -250.075E+06    -33.0119E+06    -453.018E+03
            1486     82.0506E-03     5.66386E-03     81.8549E-03     116.006E-03    -57.9117E-03    -58.0941E-03    -57.8614E-03     115.956E-03    -58.0941E-03     5.82767E-03     130.699E-03     194.658E+06    -22.6182E+06    -53.0381E+06    -230.678E+06    -53.0533E+06    -230.663E+06    -22.6182E+06    -1.45693E+06
            1487     82.1308E-03     6.60790E-03     81.8645E-03     115.927E-03    -57.7788E-03    -58.1483E-03    -57.7280E-03     115.835E-03    -58.1074E-03     7.89781E-03     136.581E-03     186.347E+06    -14.1244E+06    -47.1558E+06    -214.767E+06    -47.1766E+06    -214.746E+06    -14.1244E+06    -1.70383E+06
            1488     82.2208E-03     7.55154E-03     81.8733E-03     115.716E-03    -57.6113E-03    -58.1052E-03    -57.4890E-03     115.553E-03    -58.0643E-03     10.5207E-03     143.462E-03     164.555E+06    -10.1756E+06    -41.7525E+06    -188.228E+06    -41.7719E+06    -188.208E+06    -10.1756E+06    -1.58237E+06
            1489     82.3258E-03     8.49677E-03     81.8861E-03     115.412E-03    -57.4398E-03    -57.9722E-03    -57.1938E-03     115.166E-03    -57.9722E-03     12.9928E-03     151.689E-03     131.643E+06    -10.0622E+06    -37.5102E+06    -153.247E+06    -37.5242E+06    -153.233E+06    -10.0622E+06    -1.19714E+06
            1490     82.4439E-03     9.43998E-03     81.9017E-03     115.528E-03    -57.5766E-03    -57.9515E-03    -57.1649E-03     115.051E-03    -57.8859E-03     17.7593E-03     163.033E-03     98.9524E+06    -9.19259E+06    -34.3553E+06    -118.217E+06    -34.3624E+06    -118.210E+06    -9.19259E+06    -667.759E+03
            1491     82.5805E-03     10.3865E-03     81.9248E-03     115.852E-03    -57.8123E-03    -58.0394E-03    -57.3074E-03     115.120E-03    -57.8123E-03     22.4751E-03     177.187E-03     58.8036E+06    -8.15963E+06    -31.3927E+06    -74.5020E+06    -31.4987E+06    -74.3961E+06    -8.15963E+06     208.049E+03
            1492     82.7293E-03     11.3292E-03     81.9499E-03     115.849E-03    -57.7041E-03    -58.1452E-03    -56.9628E-03     114.688E-03    -57.7247E-03     27.9282E-03     194.279E-03     37.9367E+06     4.39794E+06    -19.2870E+06    -39.2059E+06    -28.9563E+06    -16.8268E+06    -8.31191E+06     1.77237E+06
            1493     82.9004E-03     12.2733E-03     81.9869E-03     116.477E-03    -57.6380E-03    -58.8389E-03    -56.4701E-03     114.129E-03    -57.6586E-03     39.6661E-03     219.310E-03     77.3587E+06     60.1560E+06     2.61651E+06    -27.4497E+06    -27.2680E+06     59.9743E+06     2.61651E+06     3.25689E+06
            1494     83.0931E-03     13.2191E-03     82.0349E-03     118.498E-03    -57.6769E-03    -60.8213E-03    -56.0608E-03     113.738E-03    -57.6769E-03     56.8403E-03     257.282E-03     118.685E+06     109.369E+06     22.5960E+06    -25.6132E+06    -25.5078E+06     109.264E+06     22.5960E+06     2.68383E+06
            1495     83.3232E-03     14.1636E-03     82.1106E-03     127.346E-03    -57.8002E-03    -69.5456E-03    -56.1896E-03     113.990E-03    -57.8002E-03     95.8310E-03     317.400E-03     124.556E+06     121.487E+06     53.7476E+06    -20.7931E+06    -20.7649E+06     121.459E+06     53.7476E+06     1.36665E+06
            1496     83.6248E-03     15.1104E-03     82.2483E-03     144.508E-03    -57.9696E-03    -86.5384E-03    -56.3532E-03     114.323E-03    -57.9696E-03     154.152E-03     427.582E-03     135.699E+06     135.288E+06     98.4942E+06    -14.1040E+06    -13.9846E+06     135.168E+06     98.4942E+06     2.52283E+06
            1497     84.0128E-03     16.0605E-03     82.4634E-03     137.851E-03    -58.0481E-03    -79.8032E-03    -56.3462E-03     114.394E-03    -58.0481E-03     126.784E-03     429.167E-03     141.456E+06     142.288E+06     125.600E+06    -6.68993E+06    -6.55005E+06     142.148E+06     125.600E+06     3.13342E+06
            1498     82.9680E-03     944.558E-06     82.9626E-03     116.062E-03    -57.7772E-03    -58.2846E-03    -58.1031E-03     116.060E-03    -57.9571E-03     943.183E-06     117.178E-03     211.135E+06    -75.7829E+06    -79.2050E+06    -288.601E+06    -78.5229E+06    -288.587E+06    -76.4787E+06     114.578E+03
            1499     82.9877E-03     1.88701E-03     82.9662E-03     115.965E-03    -57.8602E-03    -58.1045E-03    -57.9071E-03     115.963E-03    -58.0562E-03     902.177E-06     117.979E-03     212.227E+06    -66.6239E+06    -75.1483E+06    -282.957E+06    -75.1536E+06    -282.952E+06    -66.6239E+06     819.355E+03
            1500     83.0133E-03     2.83231E-03     82.9649E-03     115.975E-03    -57.9039E-03    -58.0712E-03    -57.9035E-03     115.971E-03    -58.0680E-03     1.37083E-03     119.849E-03     214.275E+06    -56.1806E+06    -70.7380E+06    -277.354E+06    -70.7399E+06    -277.352E+06    -56.1806E+06     502.207E+03
            1501     83.0555E-03     3.77547E-03     82.9697E-03     115.942E-03    -57.8605E-03    -58.0816E-03    -57.8516E-03     115.930E-03    -58.0783E-03     2.81052E-03     122.391E-03     211.419E+06    -46.5822E+06    -65.3987E+06    -266.770E+06    -65.4062E+06    -266.762E+06    -46.5822E+06    -193.547E+03
            1502     83.1055E-03     4.71982E-03     82.9713E-03     116.040E-03    -57.9325E-03    -58.1078E-03    -57.9174E-03     116.009E-03    -58.0915E-03     4.54712E-03     125.964E-03     200.691E+06    -35.9904E+06    -59.5966E+06    -247.410E+06    -59.6149E+06    -247.392E+06    -35.9904E+06    -1.63199E+06
            1503     83.1722E-03     5.66342E-03     82.9791E-03     116.113E-03    -57.9759E-03    -58.1376E-03    -57.9355E-03     116.057E-03    -58.1212E-03     6.23405E-03     130.774E-03     191.168E+06    -25.5114E+06    -53.7892E+06    -229.224E+06    -53.8402E+06    -229.173E+06    -25.5114E+06    -2.77768E+06
            1504     83.2474E-03     6.60692E-03     82.9848E-03     115.883E-03    -57.7515E-03    -58.1317E-03    -57.6548E-03     115.786E-03    -58.1317E-03     8.09797E-03     136.551E-03     184.294E+06    -16.7122E+06    -47.4318E+06    -214.430E+06    -47.5089E+06    -214.353E+06    -16.7122E+06    -3.43466E+06
            1505     83.3383E-03     7.55262E-03     82.9954E-03     115.689E-03    -57.6113E-03    -58.0781E-03    -57.4519E-03     115.530E-03    -58.0781E-03     10.4444E-03     143.365E-03     162.827E+06    -12.2094E+06    -41.4843E+06    -187.678E+06    -41.5580E+06    -187.604E+06    -12.2094E+06    -3.12947E+06
            1506     83.4417E-03     8.49549E-03     83.0081E-03     115.530E-03    -57.5397E-03    -57.9900E-03    -57.3017E-03     115.292E-03    -57.9900E-03     12.7640E-03     151.827E-03     131.621E+06    -11.2869E+06    -36.2024E+06    -153.579E+06    -36.2742E+06    -153.508E+06    -11.2869E+06    -2.62533E+06
            1507     83.5576E-03     9.44162E-03     83.0225E-03     115.639E-03    -57.6720E-03    -57.9675E-03    -57.2437E-03     115.152E-03    -57.9078E-03     17.9378E-03     163.117E-03     99.7016E+06    -10.4622E+06    -31.7340E+06    -118.986E+06    -31.7779E+06    -118.942E+06    -10.4622E+06    -1.53555E+06
            1508     83.6941E-03     10.3840E-03     83.0474E-03     115.863E-03    -57.8122E-03    -58.0508E-03    -57.2828E-03     115.114E-03    -57.8313E-03     22.7326E-03     176.958E-03     58.8192E+06    -9.92266E+06    -29.5829E+06    -75.5388E+06    -29.6037E+06    -75.5180E+06    -9.92266E+06    -658.941E+03
            1509     83.8416E-03     11.3288E-03     83.0727E-03     115.618E-03    -57.6971E-03    -57.9213E-03    -56.7438E-03     114.481E-03    -57.7369E-03     27.6361E-03     193.964E-03     36.3483E+06     2.24078E+06    -19.0416E+06    -39.4969E+06    -27.7645E+06    -19.1842E+06    -9.34900E+06     1.46819E+06
            1510     84.0079E-03     12.2754E-03     83.1062E-03     116.245E-03    -57.6311E-03    -58.6138E-03    -56.1888E-03     113.841E-03    -57.6517E-03     39.9083E-03     218.774E-03     74.7648E+06     58.5850E+06     2.42074E+06    -25.9268E+06    -25.6681E+06     58.3263E+06     2.42074E+06     4.23251E+06
            1511     84.2042E-03     13.2189E-03     83.1601E-03     118.766E-03    -57.6704E-03    -61.0956E-03    -56.3235E-03     113.994E-03    -57.6704E-03     57.1813E-03     257.564E-03     118.731E+06     111.305E+06     24.0100E+06    -23.6181E+06    -23.4791E+06     111.166E+06     24.0100E+06     3.53329E+06
            1512     84.4266E-03     14.1639E-03     83.2300E-03     128.386E-03    -57.8264E-03    -70.5594E-03    -56.9172E-03     114.744E-03    -57.8264E-03     97.0184E-03     317.717E-03     126.006E+06     122.867E+06     54.7247E+06    -20.9714E+06    -20.9169E+06     122.812E+06     54.7247E+06     2.23777E+06
            1513     84.7316E-03     15.1063E-03     83.3742E-03     145.099E-03    -58.0229E-03    -87.0758E-03    -56.8828E-03     114.906E-03    -58.0229E-03     154.793E-03     427.893E-03     136.408E+06     134.382E+06     96.4271E+06    -16.2843E+06    -16.2232E+06     134.321E+06     96.4271E+06     2.34916E+06
            1514     85.1010E-03     16.0516E-03     83.5734E-03     137.393E-03    -58.0998E-03    -79.2930E-03    -55.9298E-03     114.030E-03    -58.0998E-03     127.032E-03     429.346E-03     142.163E+06     143.487E+06     123.608E+06    -7.50013E+06    -7.43245E+06     143.419E+06     123.608E+06     2.11116E+06
            1515     84.0920E-03     942.592E-06     84.0867E-03     116.392E-03    -57.8793E-03    -58.5131E-03    -58.3275E-03     116.391E-03    -58.0635E-03     633.422E-06     117.313E-03     209.591E+06    -77.5810E+06    -79.2282E+06    -287.990E+06    -79.0647E+06    -287.963E+06    -77.7711E+06    -1.17580E+06
            1516     84.1069E-03     1.88845E-03     84.0857E-03     116.058E-03    -57.8867E-03    -58.1713E-03    -57.8846E-03     116.056E-03    -58.1713E-03     929.756E-06     117.997E-03     211.545E+06    -70.0806E+06    -75.6766E+06    -284.337E+06    -75.7069E+06    -284.307E+06    -70.0806E+06     358.942E+03
            1517     84.1366E-03     2.83078E-03     84.0890E-03     116.052E-03    -57.9148E-03    -58.1373E-03    -57.9109E-03     116.048E-03    -58.1373E-03     1.60143E-03     119.843E-03     212.835E+06    -58.2334E+06    -71.4032E+06    -277.305E+06    -71.4200E+06    -277.288E+06    -58.2334E+06     619.298E+03
            1518     84.1739E-03     3.77571E-03     84.0891E-03     116.012E-03    -57.8801E-03    -58.1316E-03    -57.8673E-03     115.999E-03    -58.1316E-03     2.80622E-03     122.423E-03     207.321E+06    -47.1885E+06    -65.4299E+06    -263.022E+06    -65.4780E+06    -262.974E+06    -47.1885E+06    -2.13692E+06
            1519     84.2272E-03     4.71962E-03     84.0949E-03     115.960E-03    -57.8255E-03    -58.1343E-03    -57.8087E-03     115.927E-03    -58.1180E-03     4.70893E-03     125.868E-03     197.671E+06    -38.0308E+06    -58.8595E+06    -245.281E+06    -58.9495E+06    -245.191E+06    -38.0308E+06    -3.81074E+06
            1520     84.2905E-03     5.66348E-03     84.1000E-03     115.911E-03    -57.7801E-03    -58.1313E-03    -57.7395E-03     115.854E-03    -58.1149E-03     6.24426E-03     130.565E-03     189.098E+06    -27.8015E+06    -52.9422E+06    -228.182E+06    -53.0471E+06    -228.078E+06    -27.8015E+06    -4.16493E+06
            1521     84.3665E-03     6.60838E-03     84.1073E-03     116.037E-03    -57.9138E-03    -58.1228E-03    -57.8135E-03     115.936E-03    -58.1228E-03     8.24084E-03     136.633E-03     180.679E+06    -18.1923E+06    -47.7390E+06    -211.801E+06    -47.8995E+06    -211.640E+06    -18.1923E+06    -5.00185E+06
            1522     84.4555E-03     7.55045E-03     84.1173E-03     115.916E-03    -57.8220E-03    -58.0938E-03    -57.6662E-03     115.760E-03    -58.0938E-03     10.3687E-03     143.530E-03     160.059E+06    -14.0362E+06    -42.3601E+06    -186.361E+06    -42.6191E+06    -186.102E+06    -14.0362E+06    -5.74767E+06
            1523     84.5571E-03     8.49670E-03     84.1292E-03     115.676E-03    -57.6517E-03    -58.0240E-03    -57.4187E-03     115.443E-03    -58.0240E-03     12.6109E-03     152.029E-03     131.080E+06    -12.8027E+06    -35.7755E+06    -153.847E+06    -36.1266E+06    -153.496E+06    -12.8027E+06    -6.00615E+06
            1524     84.6729E-03     9.43911E-03     84.1451E-03     115.722E-03    -57.7196E-03    -58.0026E-03    -57.2871E-03     115.237E-03    -57.9495E-03     17.9207E-03     163.329E-03     101.769E+06    -11.7354E+06    -30.7950E+06    -121.664E+06    -31.0288E+06    -121.430E+06    -11.7354E+06    -4.18178E+06
            1525     84.8071E-03     10.3853E-03     84.1689E-03     115.586E-03    -57.6639E-03    -57.9222E-03    -56.9554E-03     114.824E-03    -57.8690E-03     22.8862E-03     176.769E-03     62.8908E+06    -8.73404E+06    -28.5861E+06    -78.4965E+06    -28.7210E+06    -78.3616E+06    -8.73404E+06    -356.350E+03
            1526     84.9536E-03     11.3298E-03     84.1947E-03     115.553E-03    -57.6491E-03    -57.9038E-03    -56.6975E-03     114.460E-03    -57.7622E-03     27.2426E-03     193.750E-03     37.6170E+06      2.8429E+06    -18.0259E+06    -40.5314E+06    -27.4211E+06    -21.4055E+06    -6.88779E+06     2.15402E+06
            1527     85.1171E-03     12.2728E-03     84.2277E-03     116.206E-03    -57.6608E-03    -58.5455E-03    -56.1529E-03     113.814E-03    -57.6608E-03     39.5818E-03     219.006E-03     72.5647E+06     56.8425E+06     2.78309E+06    -25.1633E+06    -25.0069E+06     56.6861E+06     2.78309E+06     3.17550E+06
            1528     85.3118E-03     13.2200E-03     84.2813E-03     118.454E-03    -57.6606E-03    -60.7930E-03    -55.8800E-03     113.541E-03    -57.6606E-03     57.8911E-03     256.803E-03     117.681E+06     110.946E+06     24.6963E+06    -22.7547E+06    -22.5845E+06     110.776E+06     24.6963E+06     4.62366E+06
            1529     85.5355E-03     14.1637E-03     84.3546E-03     128.283E-03    -57.7964E-03    -70.4868E-03    -56.8112E-03     114.608E-03    -57.7964E-03     97.2880E-03     316.983E-03     125.173E+06     123.501E+06     55.7131E+06    -19.6482E+06    -19.4855E+06     123.339E+06     55.7131E+06     4.57819E+06
            1530     85.8347E-03     15.1123E-03     84.4939E-03     145.810E-03    -58.0141E-03    -87.7955E-03    -57.6350E-03     115.649E-03    -58.0141E-03     155.291E-03     427.014E-03     135.960E+06     135.964E+06     98.5839E+06    -13.9063E+06    -13.8201E+06     135.878E+06     98.5839E+06     3.09008E+06
            1531     86.2116E-03     16.0549E-03     84.7035E-03     138.041E-03    -58.1234E-03    -79.9178E-03    -56.4579E-03     114.581E-03    -58.1234E-03     128.005E-03     429.964E-03     144.613E+06     145.914E+06     124.969E+06    -8.00944E+06    -7.95526E+06     145.859E+06     124.969E+06     1.98984E+06
            1532     85.2130E-03     944.426E-06     85.2077E-03     116.341E-03    -57.9448E-03    -58.3962E-03    -58.3186E-03     116.339E-03    -58.0209E-03     753.294E-06     117.050E-03     207.856E+06    -77.0009E+06    -79.6470E+06    -286.154E+06    -79.4731E+06    -286.137E+06    -77.1910E+06    -817.456E+03
            1533     85.2293E-03     1.88640E-03     85.2084E-03     116.146E-03    -57.8980E-03    -58.2484E-03    -57.9781E-03     116.144E-03    -58.1657E-03     1.02930E-03     117.980E-03     210.871E+06    -72.4430E+06    -77.7867E+06    -285.926E+06    -77.8336E+06    -285.880E+06    -72.4430E+06    -951.204E+03
            1534     85.2567E-03     2.83223E-03     85.2097E-03     116.076E-03    -57.9004E-03    -58.1756E-03    -57.9320E-03     116.070E-03    -58.1380E-03     1.97513E-03     119.730E-03     207.961E+06    -62.3016E+06    -71.9224E+06    -274.860E+06    -71.9662E+06    -274.816E+06    -62.3016E+06    -1.31511E+06
            1535     85.2957E-03     3.77507E-03     85.2121E-03     116.260E-03    -58.0625E-03    -58.1972E-03    -58.0866E-03     116.246E-03    -58.1596E-03     2.96578E-03     122.611E-03     200.030E+06    -49.5207E+06    -66.4347E+06    -257.407E+06    -66.5254E+06    -257.316E+06    -49.5207E+06    -3.78232E+06
            1536     85.3465E-03     4.71891E-03     85.2160E-03     115.917E-03    -57.7519E-03    -58.1655E-03    -57.7239E-03     115.889E-03    -58.1655E-03     4.33940E-03     125.934E-03     193.194E+06    -39.6961E+06    -60.8841E+06    -242.600E+06    -61.1257E+06    -242.359E+06    -39.6961E+06    -6.33050E+06
            1537     85.4097E-03     5.66381E-03     85.2217E-03     115.798E-03    -57.6663E-03    -58.1321E-03    -57.6085E-03     115.741E-03    -58.1321E-03     6.20977E-03     130.420E-03     186.420E+06    -30.6086E+06    -53.9887E+06    -227.605E+06    -54.2710E+06    -227.323E+06    -30.6086E+06    -6.69745E+06
            1538     85.4852E-03     6.60688E-03     85.2295E-03     116.025E-03    -57.8999E-03    -58.1253E-03    -57.8013E-03     115.927E-03    -58.1253E-03     8.19881E-03     136.547E-03     177.242E+06    -20.2076E+06    -47.9262E+06    -209.646E+06    -48.2018E+06    -209.370E+06    -20.2076E+06    -6.52898E+06
            1539     85.5734E-03     7.55249E-03     85.2394E-03     115.988E-03    -57.8874E-03    -58.1004E-03    -57.7301E-03     115.831E-03    -58.1004E-03     10.3513E-03     143.617E-03     156.514E+06    -15.4150E+06    -42.6431E+06    -183.749E+06    -43.1331E+06    -183.259E+06    -15.4150E+06    -8.04204E+06
            1540     85.6733E-03     8.49434E-03     85.2512E-03     115.973E-03    -57.8895E-03    -58.0838E-03    -57.6757E-03     115.723E-03    -58.0470E-03     13.1066E-03     152.262E-03     128.011E+06    -16.0221E+06    -39.5242E+06    -154.115E+06    -40.0937E+06    -153.546E+06    -16.0221E+06    -7.99236E+06
            1541     85.7880E-03     9.44039E-03     85.2670E-03     115.835E-03    -57.8081E-03    -58.0270E-03    -57.3781E-03     115.368E-03    -57.9902E-03     17.6914E-03     163.618E-03     98.6831E+06    -15.8872E+06    -37.0095E+06    -123.375E+06    -37.5198E+06    -122.865E+06    -15.8872E+06    -6.22019E+06
            1542     85.9197E-03     10.3837E-03     85.2899E-03     115.282E-03    -57.3840E-03    -57.8983E-03    -56.6611E-03     114.559E-03    -57.8983E-03     22.2331E-03     176.591E-03     64.2292E+06    -12.5290E+06    -30.5151E+06    -83.2756E+06    -31.1506E+06    -82.6401E+06    -12.5290E+06    -3.62305E+06
            1543     86.0656E-03     11.3286E-03     85.3168E-03     115.318E-03    -57.3606E-03    -57.9575E-03    -56.4077E-03     114.167E-03    -57.7594E-03     27.8075E-03     193.307E-03     37.6424E+06     535.670E+03    -17.8148E+06    -41.6824E+06    -24.4334E+06    -25.0111E+06    -9.51704E+06    -76.2073E+03
            1544     86.2277E-03     12.2748E-03     85.3496E-03     116.386E-03    -57.6528E-03    -58.7330E-03    -56.3716E-03     114.024E-03    -57.6528E-03     39.6504E-03     219.335E-03     67.4152E+06     53.4460E+06     431.171E+03    -22.2643E+06    -22.0397E+06     53.2213E+06     431.171E+03     3.83613E+06
            1545     86.4188E-03     13.2187E-03     85.4018E-03     118.281E-03    -57.6570E-03    -60.6235E-03    -55.7552E-03     113.412E-03    -57.6570E-03     57.3737E-03     256.367E-03     116.314E+06     108.891E+06     22.1555E+06    -22.9410E+06    -22.5497E+06     108.499E+06     22.1555E+06     6.89155E+06
            1546     86.6425E-03     14.1662E-03     85.4766E-03     128.167E-03    -57.7934E-03    -70.3741E-03    -56.7488E-03     114.542E-03    -57.7934E-03     97.3046E-03     316.976E-03     127.976E+06     126.110E+06     55.7002E+06    -20.1903E+06    -19.9509E+06     125.871E+06     55.7002E+06     5.32348E+06
            1547     86.9404E-03     15.1060E-03     85.6180E-03     145.182E-03    -58.0125E-03    -87.1697E-03    -57.4963E-03     115.509E-03    -58.0125E-03     153.710E-03     427.112E-03     136.604E+06     136.427E+06     98.5775E+06    -14.1896E+06    -14.0690E+06     136.307E+06     98.5775E+06     3.35194E+06
            1548     87.3104E-03     16.0547E-03     85.8216E-03     137.268E-03    -58.1190E-03    -79.1489E-03    -56.1935E-03     114.313E-03    -58.1190E-03     126.041E-03     429.465E-03     146.503E+06     148.141E+06     125.789E+06    -8.24648E+06    -8.14860E+06     148.043E+06     125.789E+06     2.77567E+06
            1549     86.3357E-03     943.562E-06     86.3305E-03     115.883E-03    -57.7584E-03    -58.1250E-03    -58.1025E-03     115.882E-03    -57.7797E-03     888.402E-06     116.643E-03     205.040E+06    -79.4652E+06    -83.3857E+06    -286.422E+06    -83.3886E+06    -286.419E+06    -79.4652E+06     325.438E+03
            1550     86.3510E-03     1.88849E-03     86.3303E-03     116.249E-03    -57.9182E-03    -58.3313E-03    -58.2050E-03     116.248E-03    -58.0427E-03     1.10554E-03     117.983E-03     207.266E+06    -71.7309E+06    -79.8199E+06    -282.912E+06    -79.8532E+06    -282.879E+06    -71.7309E+06    -1.25540E+06
            1551     86.3773E-03     2.83094E-03     86.3309E-03     116.318E-03    -57.9458E-03    -58.3719E-03    -58.1828E-03     116.311E-03    -58.1283E-03     2.00922E-03     119.911E-03     199.904E+06    -65.8559E+06    -75.4987E+06    -270.394E+06    -75.6284E+06    -270.265E+06    -65.8559E+06    -4.44132E+06
            1552     86.4178E-03     3.77537E-03     86.3353E-03     116.147E-03    -57.9435E-03    -58.2036E-03    -57.9672E-03     116.133E-03    -58.1660E-03     3.09013E-03     122.456E-03     191.471E+06    -55.1600E+06    -70.0265E+06    -253.563E+06    -70.2310E+06    -253.358E+06    -55.1600E+06    -5.73876E+06
            1553     86.4663E-03     4.71888E-03     86.3375E-03     116.095E-03    -57.8427E-03    -58.2526E-03    -57.8816E-03     116.067E-03    -58.1853E-03     4.34878E-03     126.128E-03     185.557E+06    -41.7301E+06    -63.9859E+06    -237.369E+06    -64.3431E+06    -237.012E+06    -41.7301E+06    -7.63372E+06
            1554     86.5286E-03     5.66288E-03     86.3431E-03     115.933E-03    -57.6944E-03    -58.2382E-03    -57.7016E-03     115.872E-03    -58.1709E-03     6.34773E-03     130.580E-03     181.037E+06    -34.1589E+06    -58.2401E+06    -226.014E+06    -58.8153E+06    -225.439E+06    -34.1589E+06    -9.64712E+06
            1555     86.6046E-03     6.60774E-03     86.3521E-03     115.810E-03    -57.6733E-03    -58.1364E-03    -57.5707E-03     115.707E-03    -58.1364E-03     8.34596E-03     136.263E-03     171.222E+06    -25.9693E+06    -50.5056E+06    -208.120E+06    -51.2729E+06    -207.353E+06    -25.9693E+06    -10.4024E+06
            1556     86.6901E-03     7.55045E-03     86.3607E-03     115.931E-03    -57.8269E-03    -58.1043E-03    -57.6677E-03     115.772E-03    -58.1043E-03     10.4178E-03     143.606E-03     153.373E+06    -17.8916E+06    -43.9427E+06    -182.603E+06    -44.6853E+06    -181.860E+06    -17.8916E+06    -9.65538E+06
            1557     86.7911E-03     8.49665E-03     86.3742E-03     116.033E-03    -57.9407E-03    -58.0918E-03    -57.7197E-03     115.775E-03    -58.0550E-03     13.2673E-03     152.248E-03     127.352E+06    -17.8201E+06    -40.9145E+06    -155.059E+06    -41.4881E+06    -154.485E+06    -17.8201E+06    -7.89982E+06
            1558     86.9031E-03     9.43815E-03     86.3891E-03     115.864E-03    -57.8395E-03    -58.0243E-03    -57.3970E-03     115.385E-03    -57.9875E-03     17.9542E-03     163.679E-03     95.9312E+06    -18.9381E+06    -36.5685E+06    -122.345E+06    -37.4101E+06    -121.503E+06    -18.9381E+06    -8.10013E+06
            1559     87.0336E-03     10.3834E-03     86.4120E-03     115.223E-03    -57.3398E-03    -57.8833E-03    -56.6013E-03     114.485E-03    -57.8833E-03     22.4607E-03     176.504E-03     62.1036E+06    -18.5180E+06    -30.8991E+06    -85.7668E+06    -32.7168E+06    -83.9490E+06    -18.5180E+06    -8.75316E+06
            1560     87.1750E-03     11.3300E-03     86.4356E-03     115.254E-03    -57.3237E-03    -57.9307E-03    -56.3000E-03     114.042E-03    -57.7420E-03     28.5015E-03     193.135E-03     32.6114E+06    -9.94835E+06    -21.2220E+06    -45.7943E+06    -28.6911E+06    -31.6250E+06    -16.6484E+06    -4.26200E+06
            1561     87.3404E-03     12.2737E-03     86.4737E-03     116.533E-03    -57.6485E-03    -58.8840E-03    -56.5515E-03     114.200E-03    -57.6485E-03     39.6663E-03     219.234E-03     63.9931E+06     44.9596E+06    -5.00719E+06    -26.2592E+06    -25.9190E+06     44.6194E+06    -5.00719E+06     4.09684E+06
            1562     87.5265E-03     13.2187E-03     86.5225E-03     118.519E-03    -57.6692E-03    -60.8495E-03    -56.0967E-03     113.766E-03    -57.6692E-03     56.7049E-03     256.931E-03     117.132E+06     108.925E+06     19.7645E+06    -23.3144E+06    -22.8105E+06     108.421E+06     19.7645E+06     8.05014E+06
            1563     87.7484E-03     14.1627E-03     86.5979E-03     128.404E-03    -57.7988E-03    -70.6052E-03    -56.3577E-03     114.156E-03    -57.7988E-03     99.0271E-03     317.111E-03     131.324E+06     129.640E+06     53.9644E+06    -20.6202E+06    -20.2530E+06     129.273E+06     53.9644E+06     6.79242E+06
            1564     88.0499E-03     15.1113E-03     86.7435E-03     145.303E-03    -57.9885E-03    -87.3147E-03    -57.2692E-03     115.258E-03    -57.9885E-03     155.011E-03     426.641E-03     138.955E+06     137.889E+06     95.1526E+06    -16.3308E+06    -16.0882E+06     137.646E+06     95.1526E+06     4.36820E+06
            1565     88.4112E-03     16.0533E-03     86.9416E-03     137.240E-03    -58.1015E-03    -79.1386E-03    -56.2774E-03     114.379E-03    -58.1015E-03     126.373E-03     428.839E-03     147.342E+06     150.833E+06     125.833E+06    -7.40131E+06    -7.30972E+06     150.741E+06     125.833E+06     2.15745E+06
            1566     87.4559E-03     944.511E-06     87.4508E-03     115.810E-03    -57.7727E-03    -58.0374E-03    -57.9976E-03     115.809E-03    -57.8115E-03     787.478E-06     116.601E-03     202.033E+06    -82.6816E+06    -85.6682E+06    -286.185E+06    -85.0568E+06    -286.175E+06    -83.3027E+06    -511.328E+03
            1567     87.4727E-03     1.88777E-03     87.4524E-03     116.279E-03    -57.9617E-03    -58.3177E-03    -58.2508E-03     116.277E-03    -58.0263E-03     1.14501E-03     117.971E-03     202.543E+06    -71.4657E+06    -79.6862E+06    -277.955E+06    -79.7174E+06    -277.924E+06    -71.4657E+06    -1.72263E+06
            1568     87.5003E-03     2.83129E-03     87.4545E-03     116.371E-03    -58.0088E-03    -58.3617E-03    -58.2086E-03     116.364E-03    -58.1558E-03     1.99940E-03     119.959E-03     196.735E+06    -60.7821E+06    -75.0919E+06    -264.257E+06    -75.2411E+06    -264.108E+06    -60.7821E+06    -4.81048E+06
            1569     87.5370E-03     3.77477E-03     87.4556E-03     116.114E-03    -57.9396E-03    -58.1742E-03    -57.9250E-03     116.099E-03    -58.1736E-03     3.14745E-03     122.432E-03     187.956E+06    -54.7281E+06    -70.2791E+06    -249.960E+06    -70.6844E+06    -249.555E+06    -54.7281E+06    -8.05687E+06
            1570     87.5876E-03     4.71964E-03     87.4604E-03     116.219E-03    -57.9745E-03    -58.2442E-03    -58.0124E-03     116.189E-03    -58.1764E-03     4.52261E-03     126.214E-03     179.356E+06    -45.5796E+06    -64.3487E+06    -233.518E+06    -64.9359E+06    -232.931E+06    -45.5796E+06    -9.71662E+06
            1571     87.6487E-03     5.66240E-03     87.4657E-03     116.069E-03    -57.8050E-03    -58.2639E-03    -57.8176E-03     116.014E-03    -58.1967E-03     6.08591E-03     130.774E-03     175.580E+06    -34.2551E+06    -57.6594E+06    -220.325E+06    -58.6025E+06    -219.382E+06    -34.2551E+06    -12.0437E+06
            1572     87.7214E-03     6.60664E-03     87.4723E-03     115.718E-03    -57.5655E-03    -58.1522E-03    -57.4552E-03     115.607E-03    -58.1522E-03     8.59431E-03     136.224E-03     166.502E+06    -29.0414E+06    -51.9239E+06    -205.783E+06    -53.2262E+06    -204.480E+06    -29.0414E+06    -13.9884E+06
            1573     87.8097E-03     7.55215E-03     87.4843E-03     115.824E-03    -57.7295E-03    -58.0949E-03    -57.5584E-03     115.653E-03    -58.0949E-03     10.8622E-03     143.462E-03     150.537E+06    -24.0500E+06    -46.7223E+06    -184.582E+06    -47.9330E+06    -183.371E+06    -24.0500E+06    -12.4572E+06
            1574     87.9062E-03     8.49393E-03     87.4949E-03     115.706E-03    -57.6775E-03    -58.0283E-03    -57.4044E-03     115.433E-03    -58.0283E-03     13.5867E-03     151.994E-03     125.708E+06    -20.5091E+06    -39.3429E+06    -154.519E+06    -40.6335E+06    -153.228E+06    -20.5091E+06    -11.4114E+06
            1575     88.0203E-03     9.44066E-03     87.5126E-03     115.516E-03    -57.5773E-03    -57.9390E-03    -57.0921E-03     115.023E-03    -57.9308E-03     18.2528E-03     163.185E-03     95.6806E+06    -20.5151E+06    -32.4959E+06    -121.615E+06    -34.1404E+06    -119.971E+06    -20.5151E+06    -11.6577E+06
            1576     88.1454E-03     10.3849E-03     87.5315E-03     115.654E-03    -57.6343E-03    -58.0193E-03    -57.0847E-03     114.934E-03    -57.8494E-03     22.2454E-03     176.964E-03     63.0371E+06    -18.8380E+06    -29.9620E+06    -86.5415E+06    -31.8971E+06    -84.6065E+06    -18.8380E+06    -9.08330E+06
            1577     88.2885E-03     11.3282E-03     87.5588E-03     115.788E-03    -57.6409E-03    -58.1467E-03    -56.8383E-03     114.593E-03    -57.7544E-03     28.3265E-03     193.965E-03     30.5265E+06    -16.4716E+06    -26.7310E+06    -50.5020E+06    -33.5419E+06    -39.5340E+06    -20.6286E+06    -3.91649E+06
            1578     88.4496E-03     12.2741E-03     87.5938E-03     116.455E-03    -57.6346E-03    -58.8205E-03    -56.4543E-03     114.089E-03    -57.6346E-03     39.8920E-03     218.813E-03     64.8302E+06     37.3102E+06    -17.5693E+06    -32.4325E+06    -32.2360E+06     37.1136E+06    -17.5693E+06     632.743E+03
            1579     88.6381E-03     13.2185E-03     87.6469E-03     118.393E-03    -57.6418E-03    -60.7514E-03    -56.0820E-03     113.724E-03    -57.6418E-03     56.3212E-03     257.132E-03     121.354E+06     107.146E+06     8.15259E+06    -27.0300E+06    -26.6468E+06     106.763E+06     8.15259E+06     5.30507E+06
            1580     88.8538E-03     14.1648E-03     87.7175E-03     127.899E-03    -57.7771E-03    -70.1222E-03    -55.8872E-03     113.664E-03    -57.7771E-03     98.3628E-03     317.079E-03     133.606E+06     131.186E+06     48.2359E+06    -21.7832E+06    -21.3298E+06     130.733E+06     48.2359E+06     8.23194E+06
            1581     89.1545E-03     15.1092E-03     87.8649E-03     144.797E-03    -57.9348E-03    -86.8626E-03    -56.2782E-03     114.213E-03    -57.9348E-03     155.787E-03     425.564E-03     142.297E+06     141.949E+06     93.5280E+06    -16.5967E+06    -16.3238E+06     141.676E+06     93.5280E+06     5.20639E+06
            1582     89.5184E-03     16.0561E-03     88.0667E-03     137.714E-03    -58.0397E-03    -79.6744E-03    -56.5784E-03     114.618E-03    -58.0397E-03     126.456E-03     428.328E-03     150.696E+06     152.879E+06     126.069E+06    -9.41784E+06    -9.35976E+06     152.821E+06     126.069E+06     920.924E+03
            1583     88.5782E-03     943.550E-06     88.5732E-03     116.266E-03    -58.0419E-03    -58.2239E-03    -58.1347E-03     116.264E-03    -58.1296E-03     948.302E-06     116.914E-03     196.746E+06    -83.5986E+06    -86.9840E+06    -281.995E+06    -86.3919E+06    -281.966E+06    -84.2197E+06    -1.40399E+06
            1584     88.5945E-03     1.88733E-03     88.5744E-03     116.134E-03    -57.8999E-03    -58.2344E-03    -57.9826E-03     116.132E-03    -58.1489E-03     1.29095E-03     117.812E-03     196.883E+06    -74.8958E+06    -82.6816E+06    -275.527E+06    -82.7323E+06    -275.476E+06    -74.8958E+06    -3.06898E+06
            1585     88.6216E-03     2.83156E-03     88.5764E-03     116.089E-03    -57.9321E-03    -58.1565E-03    -57.9473E-03     116.083E-03    -58.1354E-03     2.00851E-03     119.646E-03     188.392E+06    -63.6324E+06    -77.1440E+06    -258.378E+06    -77.3675E+06    -258.154E+06    -63.6324E+06    -5.39673E+06
            1586     88.6584E-03     3.77558E-03     88.5780E-03     116.318E-03    -58.1328E-03    -58.1853E-03    -58.1451E-03     116.302E-03    -58.1571E-03     3.19724E-03     122.656E-03     180.941E+06    -54.3576E+06    -71.3200E+06    -243.164E+06    -71.8670E+06    -242.617E+06    -54.3576E+06    -9.26150E+06
            1587     88.7081E-03     4.71808E-03     88.5826E-03     116.122E-03    -57.9474E-03    -58.1748E-03    -57.9214E-03     116.089E-03    -58.1677E-03     4.73014E-03     126.137E-03     172.979E+06    -48.6116E+06    -65.4098E+06    -229.364E+06    -66.4285E+06    -228.345E+06    -48.6116E+06    -12.4024E+06
            1588     88.7685E-03     5.66318E-03     88.5876E-03     116.061E-03    -57.8568E-03    -58.2038E-03    -57.8322E-03     116.004E-03    -58.1713E-03     6.22920E-03     130.724E-03     166.025E+06    -38.1524E+06    -58.4147E+06    -213.339E+06    -59.9750E+06    -211.779E+06    -38.1524E+06    -15.1527E+06
            1589     88.8405E-03     6.60696E-03     88.5945E-03     115.974E-03    -57.7761E-03    -58.1979E-03    -57.7063E-03     115.872E-03    -58.1655E-03     8.32502E-03     136.589E-03     163.247E+06    -29.9722E+06    -51.4888E+06    -202.894E+06    -53.3912E+06    -200.991E+06    -29.9722E+06    -16.6590E+06
            1590     88.9262E-03     7.55048E-03     88.6050E-03     115.492E-03    -57.4026E-03    -58.0895E-03    -57.2302E-03     115.320E-03    -58.0895E-03     10.8321E-03     143.174E-03     149.470E+06    -27.8858E+06    -44.5165E+06    -184.956E+06    -46.6866E+06    -182.786E+06    -27.8858E+06    -17.0435E+06
            1591     89.0247E-03     8.49683E-03     88.6183E-03     115.355E-03    -57.3650E-03    -57.9898E-03    -57.1068E-03     115.092E-03    -57.9857E-03     13.3602E-03     151.755E-03     123.181E+06    -23.8959E+06    -37.6024E+06    -153.333E+06    -40.2219E+06    -150.713E+06    -23.8959E+06    -16.9851E+06
            1592     89.1328E-03     9.44002E-03     88.6315E-03     115.641E-03    -57.6674E-03    -57.9738E-03    -57.2793E-03     115.176E-03    -57.8965E-03     17.6563E-03     163.226E-03     94.9025E+06    -22.9563E+06    -33.4943E+06    -122.679E+06    -36.2608E+06    -119.912E+06    -22.9563E+06    -15.3711E+06
            1593     89.2624E-03     10.3844E-03     88.6564E-03     116.053E-03    -57.8529E-03    -58.2004E-03    -57.5146E-03     115.368E-03    -57.8529E-03     21.7844E-03     177.519E-03     66.7653E+06    -21.8145E+06    -32.1761E+06    -93.0261E+06    -33.8075E+06    -91.3946E+06    -21.8145E+06    -9.48332E+06
            1594     89.3999E-03     11.3289E-03     88.6792E-03     116.072E-03    -57.7894E-03    -58.2822E-03    -57.1457E-03     114.935E-03    -57.7894E-03     27.6288E-03     194.695E-03     35.4581E+06    -13.8581E+06    -27.2428E+06    -52.8857E+06    -29.8471E+06    -43.3084E+06    -20.8311E+06    -4.22938E+06
            1595     89.5615E-03     12.2724E-03     88.7167E-03     116.273E-03    -57.6524E-03    -58.6201E-03    -56.2115E-03     113.864E-03    -57.6524E-03     40.0284E-03     218.546E-03     58.9322E+06     34.0613E+06    -20.3608E+06    -28.0588E+06    -27.3922E+06     33.3947E+06    -20.3608E+06    -1.12803E+06
            1596     89.7460E-03     13.2182E-03     88.7673E-03     118.271E-03    -57.6174E-03    -60.6539E-03    -55.8643E-03     113.482E-03    -57.6174E-03     57.0570E-03     256.887E-03     116.891E+06     100.008E+06    -850.849E+03    -27.0031E+06    -26.7227E+06     99.7273E+06    -850.849E+03     4.09423E+06
            1597     89.9624E-03     14.1622E-03     88.8406E-03     127.929E-03    -57.7622E-03    -70.1664E-03    -56.3223E-03     114.084E-03    -57.7622E-03     97.4313E-03     318.007E-03     136.226E+06     132.025E+06     41.6347E+06    -22.7423E+06    -22.4492E+06     131.732E+06     41.6347E+06     6.49549E+06
            1598     90.2565E-03     15.1109E-03     88.9826E-03     143.918E-03    -57.9512E-03    -85.9668E-03    -55.7836E-03     113.735E-03    -57.9512E-03     153.953E-03     425.982E-03     143.616E+06     145.370E+06     93.3159E+06    -15.2703E+06    -15.1100E+06     145.209E+06     93.3159E+06     4.70278E+06
            1599     90.6239E-03     16.0581E-03     89.1899E-03     137.238E-03    -58.0376E-03    -79.2001E-03    -55.9989E-03     114.036E-03    -58.0376E-03     126.284E-03     427.952E-03     151.458E+06     155.692E+06     127.623E+06    -7.80449E+06    -7.74642E+06     155.634E+06     127.623E+06     1.44010E+06
            1600     89.7003E-03     943.456E-06     89.6954E-03     116.494E-03    -58.0581E-03    -58.4362E-03    -58.2295E-03     116.493E-03    -58.2632E-03     1.01214E-03     117.061E-03     187.217E+06    -88.0017E+06    -92.1033E+06    -277.218E+06    -91.3131E+06    -277.178E+06    -88.8325E+06    -1.89567E+06
            1601     89.7163E-03     1.88729E-03     89.6964E-03     116.076E-03    -57.8654E-03    -58.2102E-03    -57.8632E-03     116.073E-03    -58.2102E-03     1.19242E-03     117.752E-03     187.473E+06    -80.6317E+06    -86.8742E+06    -271.141E+06    -87.0562E+06    -270.959E+06    -80.6317E+06    -5.00916E+06
            1602     89.7420E-03     2.83152E-03     89.6973E-03     116.023E-03    -57.8853E-03    -58.1380E-03    -57.8991E-03     116.016E-03    -58.1169E-03     2.13502E-03     119.589E-03     174.986E+06    -72.5834E+06    -80.7917E+06    -251.505E+06    -81.2675E+06    -251.030E+06    -72.5834E+06    -8.35938E+06
            1603     89.7808E-03     3.77477E-03     89.7014E-03     116.138E-03    -57.9774E-03    -58.1606E-03    -57.9882E-03     116.121E-03    -58.1330E-03     3.35855E-03     122.468E-03     170.170E+06    -58.7145E+06    -74.2242E+06    -236.049E+06    -75.0621E+06    -235.212E+06    -58.7145E+06    -11.3324E+06
            1604     89.8281E-03     4.71950E-03     89.7040E-03     116.206E-03    -57.9468E-03    -58.2593E-03    -58.0165E-03     116.176E-03    -58.1594E-03     4.50639E-03     126.209E-03     164.900E+06    -48.2662E+06    -66.7561E+06    -221.626E+06    -68.3179E+06    -220.064E+06    -48.2662E+06    -14.9217E+06
            1605     89.8881E-03     5.66293E-03     89.7095E-03     116.136E-03    -57.8498E-03    -58.2861E-03    -57.9212E-03     116.081E-03    -58.1602E-03     6.05486E-03     130.854E-03     156.918E+06    -42.2245E+06    -59.3457E+06    -206.983E+06    -61.9226E+06    -204.406E+06    -42.2245E+06    -19.0648E+06
            1606     89.9606E-03     6.60627E-03     89.7177E-03     116.007E-03    -57.8028E-03    -58.2045E-03    -57.7406E-03     115.913E-03    -58.1720E-03     8.04260E-03     136.733E-03     158.464E+06    -32.9828E+06    -51.4497E+06    -199.855E+06    -54.7219E+06    -196.583E+06    -32.9828E+06    -21.5326E+06
            1607     90.0430E-03     7.55101E-03     89.7258E-03     115.612E-03    -57.5021E-03    -58.1101E-03    -57.3468E-03     115.457E-03    -58.1101E-03     10.2808E-03     143.427E-03     146.931E+06    -29.4302E+06    -43.1962E+06    -182.707E+06    -47.1001E+06    -178.804E+06    -29.4302E+06    -22.6595E+06
            1608     90.1400E-03     8.49516E-03     89.7388E-03     115.408E-03    -57.4001E-03    -58.0076E-03    -57.1627E-03     115.166E-03    -58.0035E-03     12.8186E-03     151.770E-03     121.897E+06    -28.2868E+06    -36.8110E+06    -154.197E+06    -41.1250E+06    -149.883E+06    -28.2868E+06    -21.8128E+06
            1609     90.2504E-03     9.43994E-03     89.7553E-03     115.880E-03    -57.7385E-03    -58.1411E-03    -57.4821E-03     115.424E-03    -57.9416E-03     17.4651E-03     163.463E-03     97.2542E+06    -24.8679E+06    -33.7212E+06    -126.220E+06    -37.2408E+06    -122.700E+06    -24.8679E+06    -17.6118E+06
            1610     90.3753E-03     10.3838E-03     89.7768E-03     116.132E-03    -57.9048E-03    -58.2271E-03    -57.5359E-03     115.441E-03    -57.9048E-03     21.8693E-03     177.737E-03     72.8695E+06    -21.8761E+06    -31.3434E+06    -98.9454E+06    -32.8253E+06    -95.9272E+06    -23.4124E+06    -13.6113E+06
            1611     90.5154E-03     11.3272E-03     89.8038E-03     115.799E-03    -57.7618E-03    -58.0375E-03    -56.8879E-03     114.703E-03    -57.8152E-03     27.1709E-03     194.698E-03     37.9217E+06    -15.2204E+06    -27.1683E+06    -55.9256E+06    -27.5274E+06    -46.9491E+06    -23.8377E+06    -9.58392E+06
            1612     90.6703E-03     12.2731E-03     89.8358E-03     116.209E-03    -57.6388E-03    -58.5703E-03    -56.1229E-03     113.815E-03    -57.6922E-03     39.7599E-03     218.635E-03     48.6332E+06     26.1475E+06    -18.4430E+06    -25.6437E+06    -24.0619E+06     24.5657E+06    -18.4430E+06    -1.18968E+06
            1613     90.8565E-03     13.2190E-03     89.8897E-03     118.302E-03    -57.6305E-03    -60.6718E-03    -55.8754E-03     113.506E-03    -57.6305E-03     57.1526E-03     256.842E-03     107.926E+06     93.7745E+06    -1.85507E+06    -23.0938E+06    -22.8506E+06     93.5313E+06    -1.85507E+06     5.21862E+06
            1614     91.0709E-03     14.1650E-03     89.9625E-03     127.950E-03    -57.7398E-03    -70.2097E-03    -56.3500E-03     114.090E-03    -57.7398E-03     97.4492E-03     317.421E-03     137.900E+06     133.739E+06     35.7298E+06    -21.4843E+06    -21.2644E+06     133.519E+06     35.7298E+06     5.71835E+06
            1615     91.3632E-03     15.1057E-03     90.1058E-03     144.442E-03    -57.9720E-03    -86.4703E-03    -56.4246E-03     114.397E-03    -57.9720E-03     154.155E-03     426.295E-03     147.141E+06     149.327E+06     91.9210E+06    -15.8972E+06    -15.8106E+06     149.241E+06     91.9210E+06     2.99197E+06
            1616     91.7196E-03     16.0537E-03     90.3037E-03     137.584E-03    -58.0883E-03    -79.4962E-03    -55.9600E-03     114.048E-03    -58.0883E-03     128.618E-03     429.123E-03     153.422E+06     158.621E+06     128.534E+06    -7.55153E+06    -7.54306E+06     158.613E+06     128.534E+06     952.634E+03
            1617     90.8226E-03     943.260E-06     90.8177E-03     116.446E-03    -57.9653E-03    -58.4803E-03    -58.3447E-03     116.445E-03    -58.1003E-03     644.957E-06     117.004E-03     181.868E+06    -87.7885E+06     -90.643E+06    -271.065E+06    -89.2488E+06    -270.985E+06    -89.2626E+06    -3.35551E+06
            1618     90.8374E-03     1.88758E-03     90.8178E-03     116.319E-03    -58.0070E-03    -58.3121E-03    -58.1045E-03     116.317E-03    -58.2127E-03     1.07773E-03     118.006E-03     176.257E+06    -83.4769E+06    -87.1537E+06    -261.542E+06    -86.9258E+06    -261.127E+06    -84.1203E+06    -7.73602E+06
            1619     90.8643E-03     2.83073E-03     90.8202E-03     116.140E-03    -57.9649E-03    -58.1752E-03    -57.9582E-03     116.133E-03    -58.1752E-03     2.05503E-03     119.730E-03     164.725E+06    -76.3277E+06    -82.1823E+06    -243.892E+06    -83.0127E+06    -243.062E+06    -76.3277E+06    -11.3458E+06
            1620     90.9007E-03     3.77557E-03     90.8222E-03     116.105E-03    -57.9416E-03    -58.1631E-03    -57.9274E-03     116.091E-03    -58.1631E-03     3.08852E-03     122.422E-03     157.851E+06    -64.8270E+06    -76.3059E+06    -228.047E+06    -77.8901E+06    -226.463E+06    -64.8270E+06    -14.8399E+06
            1621     90.9496E-03     4.71864E-03     90.8272E-03     116.218E-03    -57.9413E-03    -58.2763E-03    -58.0074E-03     116.190E-03    -58.1829E-03     4.25788E-03     126.241E-03     154.695E+06    -51.8556E+06    -67.6167E+06    -213.802E+06    -70.4626E+06    -210.956E+06    -51.8556E+06    -19.6644E+06
            1622     91.0086E-03     5.66176E-03     90.8323E-03     116.078E-03    -57.8005E-03    -58.2773E-03    -57.8396E-03     116.023E-03    -58.1839E-03     6.03756E-03     130.813E-03     149.925E+06    -43.3005E+06    -58.9179E+06    -200.418E+06    -62.7433E+06    -196.593E+06    -43.3005E+06    -22.7277E+06
            1623     91.0786E-03     6.60696E-03     90.8386E-03     115.938E-03    -57.7635E-03    -58.1746E-03    -57.6681E-03     115.843E-03    -58.1746E-03     8.07676E-03     136.557E-03     150.673E+06    -36.1634E+06    -52.8245E+06    -194.466E+06    -57.3403E+06    -189.950E+06    -36.1634E+06    -24.8103E+06
            1624     91.1622E-03     7.55038E-03     90.8490E-03     116.012E-03    -57.8799E-03    -58.1322E-03    -57.7282E-03     115.860E-03    -58.1322E-03     10.2016E-03     143.767E-03     139.565E+06    -33.3345E+06    -46.6632E+06    -179.037E+06    -52.7026E+06    -172.997E+06    -33.3345E+06    -27.1681E+06
            1625     91.2562E-03     8.49428E-03     90.8600E-03     115.861E-03    -57.7925E-03    -58.0684E-03    -57.5543E-03     115.615E-03    -58.0605E-03     12.9491E-03     152.176E-03     118.391E+06    -34.0419E+06    -40.1698E+06    -155.354E+06    -46.6738E+06    -148.234E+06    -34.6572E+06    -27.5606E+06
            1626     91.3657E-03     9.43907E-03     90.8768E-03     115.850E-03    -57.6999E-03    -58.1506E-03    -57.3694E-03     115.382E-03    -58.0124E-03     17.7323E-03     163.412E-03     101.323E+06    -28.7098E+06    -34.6405E+06    -132.821E+06    -38.9074E+06    -126.686E+06    -30.5781E+06    -23.5137E+06
            1627     91.4916E-03     10.3826E-03     90.9006E-03     115.734E-03    -57.6361E-03    -58.0979E-03    -57.0889E-03     115.042E-03    -57.9533E-03     21.8296E-03     177.322E-03     77.5455E+06    -22.7816E+06    -29.3889E+06    -103.398E+06    -31.8958E+06    -98.1015E+06    -25.5709E+06    -18.9808E+06
            1628     91.6271E-03     11.3281E-03     90.9241E-03     115.513E-03    -57.5607E-03    -57.9519E-03    -56.5943E-03     114.416E-03    -57.8218E-03     27.1173E-03     194.249E-03     40.4285E+06    -19.5066E+06    -29.9498E+06    -62.1650E+06    -28.7210E+06    -54.0174E+06    -28.8829E+06    -13.2856E+06
            1629     91.7822E-03     12.2726E-03     90.9580E-03     116.479E-03    -57.6485E-03    -58.8306E-03    -56.3850E-03     114.087E-03    -57.7019E-03     39.8370E-03     218.832E-03     45.8722E+06     17.6651E+06    -23.7906E+06    -31.5334E+06    -26.5720E+06     12.7037E+06    -23.7906E+06    -3.85423E+06
            1630     91.9657E-03     13.2167E-03     91.0110E-03     118.447E-03    -57.6404E-03    -60.8064E-03    -55.9483E-03     113.589E-03    -57.6404E-03     57.4685E-03     256.888E-03     104.074E+06     88.3599E+06    -6.37223E+06    -22.8872E+06    -22.6800E+06     88.1526E+06    -6.37223E+06     4.29319E+06
            1631     92.1787E-03     14.1613E-03     91.0844E-03     126.996E-03    -57.6908E-03    -69.3049E-03    -55.3943E-03     113.085E-03    -57.6908E-03     97.1506E-03     316.137E-03     139.279E+06     136.080E+06     28.9369E+06    -18.9019E+06    -18.6446E+06     135.823E+06     28.9369E+06     6.12576E+06
            1632     92.4693E-03     15.1135E-03     91.2258E-03     145.237E-03    -57.9123E-03    -87.3247E-03    -56.6639E-03     114.576E-03    -57.9123E-03     156.179E-03     425.554E-03     150.255E+06     154.453E+06     89.1494E+06    -14.4852E+06    -14.3992E+06     154.367E+06     89.1494E+06     3.08467E+06
            1633     92.8306E-03     16.0548E-03     91.4317E-03     138.732E-03    -58.0774E-03    -80.6549E-03    -56.8275E-03     114.905E-03    -58.0774E-03     129.422E-03     429.515E-03     155.854E+06     160.733E+06     128.672E+06    -8.55492E+06    -8.54366E+06     160.722E+06     128.672E+06     658.324E+03
            1634     91.9448E-03     944.381E-06     91.9400E-03     116.413E-03    -57.9379E-03    -58.4752E-03    -58.4733E-03     116.411E-03    -57.9379E-03     912.060E-06     116.963E-03     175.290E+06    -86.3282E+06    -88.7618E+06    -262.822E+06    -88.2652E+06    -262.675E+06    -86.9716E+06    -3.92791E+06
            1635     91.9603E-03     1.88660E-03     91.9409E-03     116.631E-03    -58.1778E-03    -58.4533E-03    -58.3850E-03     116.629E-03    -58.2444E-03     1.00740E-03     118.311E-03     164.533E+06    -83.3976E+06    -86.4291E+06    -249.425E+06    -86.3800E+06    -248.831E+06    -84.0410E+06    -9.38958E+06
            1636     91.9852E-03     2.83109E-03     91.9416E-03     116.516E-03    -58.1647E-03    -58.3517E-03    -58.2201E-03     116.511E-03    -58.2912E-03     1.83745E-03     120.109E-03     154.890E+06    -77.3034E+06    -81.9489E+06    -234.455E+06    -83.3467E+06    -233.057E+06    -77.3034E+06    -14.0977E+06
            1637     92.0227E-03     3.77378E-03     91.9453E-03     116.203E-03    -57.9316E-03    -58.2713E-03    -57.9185E-03     116.190E-03    -58.2713E-03     2.93580E-03     122.543E-03     146.480E+06    -67.9867E+06    -75.1439E+06    -217.903E+06    -77.7694E+06    -215.278E+06    -67.9867E+06    -18.7847E+06
            1638     92.0701E-03     4.71800E-03     91.9491E-03     115.886E-03    -57.6594E-03    -58.2265E-03    -57.6282E-03     115.855E-03    -58.2265E-03     4.54402E-03     125.909E-03     143.180E+06    -56.4789E+06    -68.1240E+06    -205.095E+06    -72.3740E+06    -200.845E+06    -56.4789E+06    -23.5166E+06
            1639     92.1283E-03     5.66327E-03     91.9541E-03     115.967E-03    -57.7759E-03    -58.1908E-03    -57.7219E-03     115.913E-03    -58.1908E-03     6.08915E-03     130.607E-03     141.810E+06    -46.4578E+06    -61.9248E+06    -195.366E+06    -67.3255E+06    -189.966E+06    -46.4578E+06    -26.1227E+06
            1640     92.1984E-03     6.60584E-03     91.9614E-03     116.123E-03    -57.9385E-03    -58.1843E-03    -57.8436E-03     116.028E-03    -58.1843E-03     8.01295E-03     136.660E-03     142.507E+06    -38.9202E+06    -55.0609E+06    -188.810E+06    -61.1232E+06    -182.748E+06    -38.9202E+06    -27.6223E+06
            1641     92.2799E-03     7.55043E-03     91.9705E-03     116.138E-03    -57.9784E-03    -58.1598E-03    -57.8222E-03     115.982E-03    -58.1598E-03     10.3669E-03     143.803E-03     132.269E+06    -34.8551E+06    -46.3898E+06    -172.452E+06    -54.6564E+06    -164.186E+06    -34.8551E+06    -30.7353E+06
            1642     92.3748E-03     8.49414E-03     91.9835E-03     116.162E-03    -58.0443E-03    -58.1179E-03    -57.7999E-03     115.908E-03    -58.1076E-03     13.1818E-03     152.437E-03     116.518E+06    -35.3034E+06    -40.2302E+06    -154.176E+06    -49.1460E+06    -143.751E+06    -36.8121E+06    -32.9647E+06
            1643     92.4811E-03     9.43708E-03     91.9983E-03     115.825E-03    -57.7650E-03    -58.0597E-03    -57.2812E-03     115.331E-03    -58.0494E-03     18.1867E-03     163.466E-03     104.447E+06    -32.5970E+06    -37.8392E+06    -139.531E+06    -43.3468E+06    -128.782E+06    -37.8392E+06    -31.9554E+06
            1644     92.6061E-03     10.3829E-03     92.0222E-03     115.259E-03    -57.2974E-03    -57.9615E-03    -56.5931E-03     114.555E-03    -57.9615E-03     21.9878E-03     176.786E-03     82.7795E+06    -26.0613E+06    -34.3108E+06    -112.580E+06    -36.3920E+06    -103.316E+06    -33.2440E+06    -26.3819E+06
            1645     92.7394E-03     11.3276E-03     92.0450E-03     115.613E-03    -57.4416E-03    -58.1716E-03    -56.6763E-03     114.498E-03    -57.8213E-03     27.3300E-03     194.005E-03     46.9451E+06    -19.9335E+06    -34.7504E+06    -70.2827E+06    -29.3527E+06    -61.9303E+06    -33.6835E+06    -17.5037E+06
            1646     92.8948E-03     12.2725E-03     92.0805E-03     116.588E-03    -57.7068E-03    -58.8814E-03    -56.5114E-03     114.218E-03    -57.7068E-03     39.7689E-03     219.002E-03     43.0494E+06     10.6396E+06    -28.6354E+06    -35.0986E+06    -25.1578E+06     1.08258E+06    -29.0192E+06    -7.40797E+06
            1647     93.0757E-03     13.2182E-03     92.1323E-03     118.037E-03    -57.6262E-03    -60.4104E-03    -55.5001E-03     113.126E-03    -57.6262E-03     57.5122E-03     256.339E-03     98.6087E+06     81.2842E+06    -11.0410E+06    -22.5001E+06    -21.9734E+06     81.1413E+06    -11.4249E+06     948.935E+03
            1648     93.2875E-03     14.1651E-03     92.2058E-03     126.686E-03    -57.6530E-03    -69.0329E-03    -55.4744E-03     113.127E-03    -57.6530E-03     96.3297E-03     316.046E-03     138.705E+06     136.260E+06     24.2767E+06    -16.7215E+06    -16.5818E+06     136.121E+06     24.2767E+06     3.90723E+06
            1649     93.5703E-03     15.1082E-03     92.3425E-03     145.380E-03    -57.8844E-03    -87.4958E-03    -56.6219E-03     114.506E-03    -57.8844E-03     156.347E-03     425.730E-03     149.727E+06     156.887E+06     86.7095E+06    -11.7488E+06    -11.5898E+06     156.728E+06     86.7095E+06     4.72086E+06
            1650     93.9426E-03     16.0559E-03     92.5603E-03     138.396E-03    -58.0549E-03    -80.3407E-03    -56.4646E-03     114.520E-03    -58.0549E-03     127.776E-03     428.685E-03     156.745E+06     164.194E+06     129.934E+06    -6.65700E+06    -6.54741E+06     164.085E+06     129.934E+06     2.76259E+06
            1651     93.0680E-03     943.065E-06     93.0633E-03     116.669E-03    -58.0845E-03    -58.5845E-03    -58.5507E-03     116.667E-03    -58.1161E-03     1.05264E-03     117.211E-03     163.523E+06    -86.6780E+06    -89.7035E+06    -251.688E+06    -88.6470E+06    -251.386E+06    -88.0369E+06    -5.32239E+06
            1652     93.0822E-03     1.88766E-03     93.0630E-03     116.847E-03    -58.3415E-03    -58.5052E-03    -58.4720E-03     116.845E-03    -58.3731E-03     938.557E-06     118.517E-03     153.125E+06    -81.4241E+06    -83.6992E+06    -235.673E+06    -84.7609E+06    -234.611E+06    -81.4241E+06    -11.9971E+06
            1653     93.1085E-03     2.82964E-03     93.0655E-03     116.664E-03    -58.1812E-03    -58.4828E-03    -58.2585E-03     116.658E-03    -58.3997E-03     1.94248E-03     120.252E-03     146.599E+06    -74.2430E+06    -77.3376E+06    -222.364E+06    -79.5549E+06    -220.147E+06    -74.2430E+06    -17.3299E+06
            1654     93.1439E-03     3.77386E-03     93.0674E-03     116.151E-03    -57.8092E-03    -58.3417E-03    -57.7942E-03     116.136E-03    -58.3417E-03     3.14676E-03     122.497E-03     139.117E+06    -65.9702E+06    -71.6450E+06    -207.823E+06    -75.1523E+06    -204.316E+06    -65.9702E+06    -21.4030E+06
            1655     93.1899E-03     4.71861E-03     93.0704E-03     116.001E-03    -57.7315E-03    -58.2697E-03    -57.7012E-03     115.971E-03    -58.2697E-03     4.53013E-03     125.975E-03     133.906E+06    -56.0474E+06    -66.7770E+06    -194.965E+06    -71.7870E+06    -189.955E+06    -56.0474E+06    -24.6625E+06
            1656     93.2490E-03     5.66144E-03     93.0770E-03     116.024E-03    -57.7872E-03    -58.2366E-03    -57.7375E-03     115.974E-03    -58.2366E-03     5.84073E-03     130.677E-03     135.004E+06    -46.8145E+06    -61.3653E+06    -188.503E+06    -68.1413E+06    -181.727E+06    -46.8145E+06    -28.4871E+06
            1657     93.3174E-03     6.60653E-03     93.0832E-03     116.120E-03    -57.9037E-03    -58.2168E-03    -57.8071E-03     116.024E-03    -58.2168E-03     8.04346E-03     136.658E-03     136.632E+06    -40.2621E+06    -53.1244E+06    -182.821E+06    -62.1257E+06    -173.819E+06    -40.2621E+06    -32.5870E+06
            1658     93.3994E-03     7.54946E-03     93.0938E-03     116.147E-03    -57.9647E-03    -58.1820E-03    -57.8035E-03     115.986E-03    -58.1820E-03     10.5452E-03     143.750E-03     127.067E+06    -36.5637E+06    -43.7821E+06    -167.029E+06    -55.0907E+06    -155.721E+06    -36.5637E+06    -35.2217E+06
            1659     93.4917E-03     8.49356E-03     93.1051E-03     115.915E-03    -57.7896E-03    -58.1255E-03    -57.5254E-03     115.648E-03    -58.1230E-03     13.4488E-03     152.191E-03     114.420E+06    -34.0055E+06    -38.7810E+06    -150.728E+06    -49.6561E+06    -137.136E+06    -36.7223E+06    -36.8699E+06
            1660     93.5988E-03     9.43843E-03     93.1217E-03     115.586E-03    -57.5487E-03    -58.0369E-03    -57.0622E-03     115.097E-03    -58.0345E-03     18.1628E-03     163.251E-03     106.945E+06    -29.8336E+06    -39.9839E+06    -141.364E+06    -44.7844E+06    -126.413E+06    -39.9839E+06    -37.9018E+06
            1661     93.7184E-03     10.3824E-03     93.1415E-03     115.510E-03    -57.4832E-03    -58.0272E-03    -56.8409E-03     114.778E-03    -57.9370E-03     22.4167E-03     176.794E-03     90.8924E+06    -25.5978E+06    -40.1218E+06    -122.828E+06    -39.5193E+06    -108.907E+06    -40.1218E+06    -33.9612E+06
            1662     93.8540E-03     11.3280E-03     93.1679E-03     115.788E-03    -57.6446E-03    -58.1434E-03    -56.8217E-03     114.641E-03    -57.8189E-03     27.8712E-03     194.101E-03     57.2984E+06    -20.7810E+06    -40.8558E+06    -83.7603E+06     -34.708E+06    -69.8332E+06    -40.8558E+06    -25.1507E+06
            1663     94.0066E-03     12.2716E-03     93.2021E-03     116.425E-03    -57.7094E-03    -58.7160E-03    -56.3659E-03     114.078E-03    -57.7117E-03     39.5298E-03     218.989E-03     43.2355E+06     2.56400E+06    -34.4676E+06    -43.7728E+06    -28.0789E+06    -12.1496E+06    -35.4479E+06    -13.9564E+06
            1664     94.1847E-03     13.2170E-03     93.2527E-03     117.755E-03    -57.6148E-03    -60.1400E-03    -55.4300E-03     113.045E-03    -57.6148E-03     56.3969E-03     256.384E-03     94.0468E+06     73.5910E+06    -16.1607E+06    -24.0911E+06    -22.2062E+06     72.6863E+06    -17.1409E+06    -3.58427E+06
            1665     94.3941E-03     14.1633E-03     93.3255E-03     127.266E-03    -57.6509E-03    -69.6151E-03    -56.0754E-03     113.726E-03    -57.6509E-03     96.2896E-03     316.385E-03     140.229E+06     133.246E+06     17.6745E+06    -20.3628E+06    -20.3159E+06     133.199E+06     17.6745E+06     2.14242E+06
            1666     94.6814E-03     15.1095E-03     93.4680E-03     145.500E-03    -57.9126E-03    -87.5874E-03    -56.8304E-03     114.743E-03    -57.9126E-03     156.195E-03     426.082E-03     153.056E+06     156.989E+06     81.5683E+06    -16.0139E+06    -15.8608E+06     156.836E+06     81.5683E+06     4.64886E+06
            1667     95.0421E-03     16.0554E-03     93.6762E-03     137.118E-03    -58.0702E-03    -79.0478E-03    -55.3072E-03     113.377E-03    -58.0702E-03     127.130E-03     427.933E-03     161.044E+06     168.496E+06     129.001E+06    -8.31182E+06    -8.20127E+06     168.386E+06     129.001E+06     3.27293E+06
            1668     94.1895E-03     943.552E-06     94.1848E-03     117.110E-03    -58.3920E-03    -58.7182E-03    -58.6436E-03     117.108E-03    -58.4643E-03     985.309E-06     117.659E-03     155.273E+06    -79.0632E+06    -82.4546E+06    -235.998E+06    -81.0047E+06    -235.581E+06    -80.9299E+06    -7.11395E+06
            1669     94.2060E-03     1.88588E-03     94.1871E-03     116.757E-03    -58.2373E-03    -58.5193E-03    -58.2565E-03     116.753E-03    -58.4967E-03     1.38528E-03     118.424E-03     142.167E+06    -76.6363E+06    -79.3934E+06    -220.152E+06    -80.3065E+06    -218.731E+06    -77.1441E+06    -13.5901E+06
            1670     94.2306E-03     2.83037E-03     94.1880E-03     116.451E-03    -58.0149E-03    -58.4362E-03    -58.0372E-03     116.445E-03    -58.4082E-03     1.91673E-03     120.034E-03     137.596E+06    -70.7182E+06    -75.2843E+06    -210.526E+06    -78.2647E+06    -207.546E+06    -70.7182E+06    -19.5358E+06
            1671     94.2646E-03     3.77453E-03     94.1890E-03     116.419E-03    -58.0653E-03    -58.3537E-03    -58.0566E-03     116.405E-03    -58.3484E-03     3.05257E-03     122.758E-03     131.818E+06    -62.8323E+06    -69.3490E+06    -197.774E+06    -73.9650E+06    -193.158E+06    -62.8323E+06    -23.6626E+06
            1672     94.3120E-03     4.71711E-03     94.1940E-03     116.298E-03    -57.9720E-03    -58.3259E-03    -57.9430E-03     116.269E-03    -58.3259E-03     4.43786E-03     126.272E-03     128.204E+06    -52.9091E+06    -62.2323E+06    -185.508E+06    -68.4318E+06    -179.308E+06    -52.9091E+06    -26.7697E+06
            1673     94.3685E-03     5.66196E-03     94.1984E-03     116.142E-03    -57.8327E-03    -58.3089E-03    -57.7774E-03     116.086E-03    -58.3089E-03     6.11426E-03     130.771E-03     130.349E+06    -42.3218E+06    -53.9302E+06    -178.076E+06    -62.1352E+06    -169.870E+06    -42.3218E+06    -30.7014E+06
            1674     94.4373E-03     6.60510E-03     94.2061E-03     116.107E-03    -57.8310E-03    -58.2760E-03    -57.7337E-03     116.010E-03    -58.2760E-03     8.14119E-03     136.629E-03     132.451E+06    -35.8657E+06    -45.7719E+06    -172.963E+06    -56.8418E+06    -161.893E+06    -35.8657E+06    -35.6767E+06
            1675     94.5179E-03     7.54987E-03     94.2159E-03     115.896E-03    -57.6875E-03    -58.2087E-03    -57.5242E-03     115.733E-03    -58.2087E-03     10.5507E-03     143.472E-03     125.651E+06    -33.5036E+06    -39.7882E+06    -162.170E+06    -52.7032E+06    -147.946E+06    -34.8126E+06    -39.2708E+06
            1676     94.6098E-03     8.49374E-03     94.2278E-03     115.432E-03    -57.3253E-03    -58.1068E-03    -57.0656E-03     115.172E-03    -58.1068E-03     13.3012E-03     151.812E-03     115.407E+06    -29.2804E+06    -36.5723E+06    -148.136E+06    -47.5763E+06    -131.118E+06    -35.2941E+06    -41.2390E+06
            1677     94.7137E-03     9.43823E-03     94.2423E-03     115.519E-03    -57.3938E-03    -58.1251E-03    -57.0135E-03     115.020E-03    -58.0068E-03     18.2125E-03     162.984E-03     107.971E+06    -27.0491E+06    -36.9197E+06    -139.459E+06    -44.2049E+06    -122.303E+06    -36.9197E+06    -40.4059E+06
            1678     94.8342E-03     10.3837E-03     94.2640E-03     116.060E-03    -57.8227E-03    -58.2369E-03    -57.3913E-03     115.321E-03    -57.9296E-03     22.5960E-03     177.186E-03     95.0376E+06    -25.9398E+06    -40.8592E+06    -127.217E+06    -42.9501E+06    -110.207E+06    -40.8592E+06    -37.6975E+06
            1679     94.9677E-03     11.3264E-03     94.2899E-03     115.686E-03    -57.6736E-03    -58.0124E-03    -56.7452E-03     114.569E-03    -57.8234E-03     27.4369E-03     194.198E-03     69.7254E+06    -18.8157E+06    -45.4746E+06    -96.7010E+06    -38.8550E+06    -76.6617E+06    -45.4746E+06    -33.3238E+06
            1680     95.1179E-03     12.2729E-03     94.3227E-03     116.214E-03    -57.5562E-03    -58.6578E-03    -56.0961E-03     113.802E-03    -57.7061E-03     39.9235E-03     218.475E-03     50.4485E+06    -1.42392E+06    -40.6015E+06    -56.9451E+06    -32.4411E+06    -25.3315E+06    -41.1979E+06    -23.1034E+06
            1681     95.2963E-03     13.2178E-03     94.3752E-03     118.340E-03    -57.5911E-03    -60.7484E-03    -56.0192E-03     113.610E-03    -57.5911E-03     56.8549E-03     256.794E-03     92.9984E+06     63.3649E+06    -27.4730E+06    -31.5708E+06    -27.0782E+06     59.6571E+06    -28.2578E+06    -9.58896E+06
            1682     95.5015E-03     14.1629E-03     94.4455E-03     128.076E-03    -57.6469E-03    -70.4288E-03    -56.6594E-03     114.306E-03    -57.6469E-03     97.1861E-03     316.911E-03     140.527E+06     128.455E+06     6.73487E+06    -22.5866E+06    -22.2679E+06     128.324E+06     6.54643E+06     811.032E+03
            1683     95.7901E-03     15.1077E-03     94.5912E-03     144.804E-03    -57.9277E-03    -86.8761E-03    -56.4352E-03     114.363E-03    -57.9277E-03     155.169E-03     425.675E-03     153.194E+06     156.832E+06     74.9697E+06    -16.3496E+06    -16.2414E+06     156.724E+06     74.9697E+06     4.15757E+06
            1684     96.1457E-03     16.0530E-03     94.7961E-03     135.925E-03    -58.0668E-03    -77.8586E-03    -54.2979E-03     112.365E-03    -58.0668E-03     127.018E-03     427.670E-03     161.918E+06     170.555E+06     126.919E+06    -8.27006E+06    -8.22271E+06     170.508E+06     126.919E+06     2.28668E+06
            1685     95.3132E-03     942.700E-06     95.3085E-03     116.976E-03    -58.1606E-03    -58.8155E-03    -58.7192E-03     116.972E-03    -58.2527E-03     1.39471E-03     117.514E-03     148.265E+06    -70.5745E+06    -75.0696E+06    -221.026E+06    -73.8494E+06    -220.740E+06    -72.0815E+06    -5.76739E+06
            1686     95.3288E-03     1.88712E-03     95.3101E-03     116.596E-03    -58.1546E-03    -58.4413E-03    -58.1587E-03     116.592E-03    -58.4338E-03     1.43173E-03     118.250E-03     133.859E+06    -66.6835E+06    -72.5234E+06    -203.349E+06    -73.4254E+06    -201.939E+06    -67.1913E+06    -12.5277E+06
            1687     95.3517E-03     2.83075E-03     95.3097E-03     116.634E-03    -58.2049E-03    -58.4291E-03    -58.2364E-03     116.628E-03    -58.3920E-03     1.91064E-03     120.220E-03     133.261E+06    -59.5191E+06    -67.6813E+06    -196.664E+06    -70.8537E+06    -193.492E+06    -59.5191E+06    -19.7598E+06
            1688     95.3880E-03     3.77338E-03     95.3133E-03     116.591E-03    -58.1834E-03    -58.4071E-03    -58.1988E-03     116.576E-03    -58.3775E-03     3.08264E-03     122.932E-03     127.650E+06    -54.0207E+06    -61.5946E+06    -185.279E+06    -67.1892E+06    -179.685E+06    -54.0207E+06    -25.2374E+06
            1689     95.4325E-03     4.71778E-03     95.3158E-03     116.328E-03    -57.9754E-03    -58.3528E-03    -57.9430E-03     116.296E-03    -58.3528E-03     4.64671E-03     126.315E-03     124.969E+06    -47.2812E+06    -53.5936E+06    -175.278E+06    -61.8207E+06    -167.051E+06    -47.2812E+06    -30.4214E+06
            1690     95.4891E-03     5.66116E-03     95.3212E-03     116.263E-03    -57.9285E-03    -58.3344E-03    -57.8658E-03     116.200E-03    -58.3344E-03     6.53023E-03     130.897E-03     127.428E+06    -37.5956E+06    -45.7880E+06    -168.905E+06    -55.8419E+06    -158.852E+06    -37.5956E+06    -33.6158E+06
            1691     95.5577E-03     6.60530E-03     95.3291E-03     116.028E-03    -57.7258E-03    -58.3023E-03    -57.6213E-03     115.924E-03    -58.3023E-03     8.45107E-03     136.585E-03     127.989E+06    -29.9539E+06    -39.1472E+06    -162.289E+06    -51.4686E+06    -149.968E+06    -29.9539E+06    -36.8247E+06
            1692     95.6357E-03     7.54901E-03     95.3373E-03     115.555E-03    -57.3496E-03    -58.2058E-03    -57.1772E-03     115.383E-03    -58.2058E-03     10.8087E-03     143.153E-03     124.463E+06    -26.2455E+06    -33.1963E+06    -154.031E+06    -47.2377E+06    -137.349E+06    -28.8869E+06    -41.8659E+06
            1693     95.7277E-03     8.49410E-03     95.3501E-03     115.378E-03    -57.2800E-03    -58.0985E-03    -57.0428E-03     115.127E-03    -58.0842E-03     13.1366E-03     151.685E-03     116.317E+06    -25.6878E+06    -31.3686E+06    -144.692E+06    -44.6631E+06    -125.717E+06    -31.3686E+06    -43.5383E+06
            1694     95.8283E-03     9.43975E-03     95.3622E-03     115.793E-03    -57.6472E-03    -58.1461E-03    -57.2817E-03     115.295E-03    -58.0135E-03     18.1221E-03     163.246E-03     108.895E+06    -26.0129E+06    -31.8540E+06    -137.624E+06    -43.4158E+06    -120.222E+06    -31.8540E+06    -40.4872E+06
            1695     95.9522E-03     10.3822E-03     95.3889E-03     115.836E-03    -57.6880E-03    -58.1482E-03    -57.1477E-03     115.079E-03    -57.9311E-03     22.8568E-03     176.976E-03     97.6335E+06    -21.6507E+06    -36.6314E+06    -125.445E+06    -41.2942E+06    -105.801E+06    -36.6314E+06    -40.3445E+06
            1696     96.0801E-03     11.3274E-03     95.4100E-03     115.773E-03    -57.4771E-03    -58.2962E-03    -56.8466E-03     114.650E-03    -57.8036E-03     27.5427E-03     193.997E-03     79.7796E+06    -13.2819E+06    -46.1830E+06    -103.173E+06    -37.8282E+06    -78.6269E+06    -46.1830E+06    -39.6662E+06
            1697     96.2295E-03     12.2722E-03     95.4437E-03     116.447E-03    -57.5514E-03    -58.8954E-03    -56.3832E-03     114.082E-03    -57.6989E-03     39.6212E-03     218.813E-03     60.3423E+06    -1.97518E+06    -46.1214E+06     -69.616E+06    -33.2671E+06    -38.3241E+06    -46.1214E+06    -31.6108E+06
            1698     96.4071E-03     13.2179E-03     95.4966E-03     118.442E-03    -57.5755E-03    -60.8666E-03    -56.0932E-03     113.669E-03    -57.5755E-03     57.0370E-03     256.533E-03     90.8435E+06     52.4522E+06    -32.5054E+06    -42.8158E+06    -26.9182E+06     42.0244E+06    -37.9753E+06    -17.2928E+06
            1699     96.6123E-03     14.1620E-03     95.5687E-03     128.400E-03    -57.5894E-03    -70.8104E-03    -56.6829E-03     114.272E-03    -57.5894E-03     98.5132E-03     316.828E-03     136.485E+06     119.525E+06    -2.48077E+06    -26.7344E+06    -20.8836E+06     119.144E+06    -7.95064E+06    -3.24147E+06
            1700     96.8983E-03     15.1064E-03     95.7136E-03     144.303E-03    -57.8508E-03    -86.4520E-03    -55.7030E-03     113.554E-03    -57.8508E-03     155.527E-03     426.047E-03     152.685E+06     155.617E+06     63.8740E+06    -15.4066E+06    -15.3303E+06     155.541E+06     63.8740E+06     2.01740E+06
            1701     97.2475E-03     16.0573E-03     95.9127E-03     135.604E-03    -57.9978E-03    -77.6059E-03    -53.8215E-03     111.819E-03    -57.9978E-03     127.549E-03     427.757E-03     161.887E+06     172.295E+06     124.922E+06    -7.37838E+06    -7.32657E+06     172.243E+06     124.922E+06     1.88491E+06
            1702     96.4378E-03     944.161E-06     96.4332E-03     116.586E-03    -57.8135E-03    -58.7721E-03    -58.3267E-03     116.583E-03    -58.2564E-03     952.239E-06     117.110E-03     139.742E+06    -65.0911E+06    -69.3548E+06    -206.907E+06    -68.0929E+06    -206.309E+06    -66.9511E+06    -7.04886E+06
            1703     96.4497E-03     1.88703E-03     96.4313E-03     116.693E-03    -58.2772E-03    -58.4159E-03    -58.3625E-03     116.691E-03    -58.3286E-03     1.01056E-03     118.344E-03     127.758E+06    -56.0131E+06    -61.5809E+06    -186.452E+06    -62.4692E+06    -184.702E+06    -56.8739E+06    -13.9565E+06
            1704     96.4760E-03     2.83021E-03     96.4345E-03     116.643E-03    -58.2096E-03    -58.4335E-03    -58.2546E-03     116.636E-03    -58.3817E-03     2.11978E-03     120.213E-03     131.012E+06    -46.6554E+06    -54.9542E+06    -181.598E+06    -57.9782E+06    -178.574E+06    -46.6554E+06    -19.2312E+06
            1705     96.5092E-03     3.77411E-03     96.4353E-03     116.434E-03    -58.0132E-03    -58.4206E-03    -58.0625E-03     116.417E-03    -58.3550E-03     3.30606E-03     122.743E-03     125.117E+06    -42.1340E+06    -49.8263E+06    -170.903E+06    -55.2305E+06    -165.499E+06    -42.1340E+06    -24.4403E+06
            1706     96.5539E-03     4.71783E-03     96.4386E-03     116.343E-03    -57.9924E-03    -58.3507E-03    -57.9969E-03     116.306E-03    -58.3093E-03     4.96208E-03     126.305E-03     118.605E+06    -39.6606E+06    -45.5607E+06    -161.086E+06    -54.4085E+06    -152.238E+06    -39.6606E+06    -30.5515E+06
            1707     96.6105E-03     5.66140E-03     96.4445E-03     116.031E-03    -57.7521E-03    -58.2794E-03    -57.6841E-03     115.963E-03    -58.2794E-03     6.81576E-03     130.648E-03     123.056E+06    -34.8899E+06    -41.4391E+06    -161.055E+06    -52.8376E+06    -149.657E+06    -34.8899E+06    -35.0780E+06
            1708     96.6763E-03     6.60562E-03     96.4504E-03     115.686E-03    -57.4701E-03    -58.2163E-03    -57.3491E-03     115.565E-03    -58.2163E-03     9.04369E-03     136.143E-03     121.646E+06    -27.8032E+06    -34.3759E+06    -152.584E+06    -48.5914E+06    -138.369E+06    -27.8032E+06    -38.2332E+06
            1709     96.7554E-03     7.55035E-03     96.4603E-03     115.551E-03    -57.4212E-03    -58.1295E-03    -57.2459E-03     115.375E-03    -58.1295E-03     10.9684E-03     143.129E-03     117.510E+06    -23.2153E+06    -29.0411E+06    -143.524E+06    -45.9606E+06    -125.272E+06    -24.5476E+06    -42.0675E+06
            1710     96.8431E-03     8.49516E-03     96.4697E-03     115.849E-03    -57.7124E-03    -58.1370E-03    -57.5179E-03     115.572E-03    -58.0545E-03     13.6283E-03     151.925E-03     112.784E+06    -24.5982E+06    -28.9484E+06    -139.470E+06    -44.7588E+06    -120.240E+06    -28.0179E+06    -42.6548E+06
            1711     96.9481E-03     9.43711E-03     96.4877E-03     115.873E-03    -57.7872E-03    -58.0856E-03    -57.3822E-03     115.385E-03    -58.0030E-03     18.1532E-03     163.522E-03     109.729E+06    -21.7344E+06    -31.1854E+06    -135.736E+06    -41.7731E+06    -115.698E+06    -31.1854E+06    -43.2124E+06
            1712     97.0641E-03     10.3838E-03     96.5071E-03     115.336E-03    -57.4309E-03    -57.9053E-03    -56.6898E-03     114.595E-03    -57.9053E-03     22.4869E-03     176.456E-03     101.712E+06    -12.3313E+06    -34.3168E+06    -122.846E+06    -36.1609E+06    -99.0164E+06    -34.3168E+06    -45.1636E+06
            1713     97.1962E-03     11.3291E-03     96.5337E-03     115.658E-03    -57.4984E-03    -58.1593E-03    -56.7413E-03     114.507E-03    -57.7655E-03     27.9593E-03     193.742E-03     87.9950E+06    -5.08543E+06    -43.2082E+06    -104.954E+06    -32.3639E+06    -77.6755E+06    -43.2082E+06    -44.3512E+06
            1714     97.3425E-03     12.2715E-03     96.5659E-03     116.898E-03    -57.6516E-03    -59.2459E-03    -56.7806E-03     114.441E-03    -57.6601E-03     40.3624E-03     219.242E-03     71.8654E+06     1.52670E+06    -49.0406E+06    -79.3330E+06    -29.5097E+06    -48.2965E+06    -49.0406E+06    -38.4448E+06
            1715     97.5161E-03     13.2169E-03     96.6162E-03     118.657E-03    -57.5444E-03    -61.1128E-03    -56.0565E-03     113.601E-03    -57.5444E-03     58.6965E-03     256.694E-03     85.7502E+06     40.1366E+06    -37.8037E+06     -51.572E+06    -25.9682E+06     22.0139E+06    -45.2847E+06    -24.3927E+06
            1716     97.7241E-03     14.1632E-03     96.6923E-03     127.486E-03    -57.4699E-03    -70.0161E-03    -55.5657E-03     113.036E-03    -57.4699E-03     99.2844E-03     316.597E-03     130.237E+06     105.585E+06    -16.1057E+06    -31.2685E+06    -22.3939E+06     104.191E+06    -23.5867E+06    -8.11439E+06
            1717     98.0045E-03     15.1112E-03     96.8325E-03     143.634E-03    -57.6608E-03    -85.9728E-03    -55.1265E-03     112.787E-03    -57.6608E-03     155.457E-03     425.456E-03     156.983E+06     154.697E+06     48.6898E+06    -17.2682E+06    -17.2634E+06     154.692E+06     48.6898E+06    -355.205E+03
            1718     98.3525E-03     16.0559E-03     97.0331E-03     135.707E-03    -57.8595E-03    -77.8471E-03    -54.0498E-03     111.909E-03    -57.8595E-03     127.843E-03     426.883E-03     164.760E+06     173.439E+06     120.689E+06    -10.3789E+06    -10.3530E+06     173.413E+06     120.689E+06     88.0768E+03
            1719     97.5583E-03     943.203E-06     97.5537E-03     116.730E-03    -57.9090E-03    -58.8210E-03    -58.2692E-03     116.729E-03    -58.4600E-03     671.777E-06     117.270E-03     131.681E+06    -54.0048E+06    -57.2937E+06    -187.298E+06    -55.5170E+06    -186.450E+06    -56.6298E+06    -9.19651E+06
            1720     97.5746E-03     1.88703E-03     97.5564E-03     116.383E-03    -58.0029E-03    -58.3803E-03    -58.0800E-03     116.380E-03    -58.3005E-03     1.20607E-03     118.044E-03     117.862E+06    -52.1228E+06    -54.8780E+06    -171.335E+06    -55.3637E+06    -169.159E+06    -53.8127E+06    -15.5478E+06
            1721     97.5971E-03     2.83060E-03     97.5560E-03     116.224E-03    -57.9462E-03    -58.2779E-03    -57.9597E-03     116.216E-03    -58.2565E-03     2.28992E-03     119.768E-03     122.041E+06    -43.7158E+06    -48.9438E+06    -168.254E+06    -52.6630E+06    -164.535E+06    -43.7158E+06    -20.4236E+06
            1722     97.6313E-03     3.77492E-03     97.5583E-03     116.245E-03    -57.9675E-03    -58.2779E-03    -57.9896E-03     116.225E-03    -58.2352E-03     3.68285E-03     122.532E-03     121.004E+06    -33.0963E+06    -41.6048E+06    -158.099E+06    -47.4373E+06    -152.267E+06    -33.0963E+06    -25.0719E+06
            1723     97.6760E-03     4.71796E-03     97.5620E-03     116.166E-03    -57.9049E-03    -58.2612E-03    -57.9069E-03     116.127E-03    -58.2199E-03     5.19039E-03     126.128E-03     117.707E+06    -25.0035E+06    -33.7550E+06    -146.813E+06    -42.0939E+06    -138.474E+06    -25.0035E+06    -29.3937E+06
            1724     97.7301E-03     5.66248E-03     97.5660E-03     115.797E-03    -57.6107E-03    -58.1860E-03    -57.5459E-03     115.732E-03    -58.1860E-03     6.63974E-03     130.420E-03     123.875E+06    -20.2903E+06    -27.6499E+06    -147.655E+06    -38.7431E+06    -136.562E+06    -20.2903E+06    -34.6631E+06
            1725     97.7962E-03     6.60702E-03     97.5727E-03     115.514E-03    -57.4110E-03    -58.1030E-03    -57.2937E-03     115.397E-03    -58.1030E-03     8.87869E-03     135.910E-03     122.266E+06    -17.0428E+06    -22.6735E+06    -142.010E+06    -36.3670E+06    -127.329E+06    -18.0305E+06    -39.1227E+06
            1726     97.8734E-03     7.55131E-03     97.5817E-03     115.801E-03    -57.6784E-03    -58.1230E-03    -57.5701E-03     115.621E-03    -58.0510E-03     11.1166E-03     143.250E-03     116.654E+06    -13.2163E+06    -19.0228E+06    -132.651E+06    -34.4661E+06    -116.220E+06    -14.2040E+06    -39.9407E+06
            1727     97.9622E-03     8.49427E-03     97.5932E-03     115.877E-03    -57.7288E-03    -58.1479E-03    -57.5720E-03     115.580E-03    -58.0076E-03     14.1278E-03     151.989E-03     114.323E+06    -13.2274E+06    -21.4101E+06    -131.390E+06    -34.4150E+06    -113.332E+06    -18.2803E+06    -41.5603E+06
            1728     98.0648E-03     9.43997E-03     97.6094E-03     115.605E-03    -57.5345E-03    -58.0703E-03    -57.1488E-03     115.077E-03    -57.9283E-03     18.8714E-03     163.083E-03     111.124E+06    -10.3395E+06    -25.4816E+06    -128.162E+06    -33.1150E+06    -105.386E+06    -25.4816E+06    -46.4288E+06
            1729     98.1789E-03     10.3828E-03     97.6283E-03     115.547E-03    -57.6046E-03    -57.9426E-03    -56.9132E-03     114.749E-03    -57.8359E-03     23.3394E-03     176.358E-03     105.098E+06    -3.92203E+06    -30.3355E+06    -119.453E+06    -31.1956E+06    -92.1791E+06    -30.3355E+06    -48.9289E+06
            1730     98.3099E-03     11.3273E-03     97.6552E-03     115.502E-03    -57.6275E-03    -57.8744E-03    -56.5689E-03     114.285E-03    -57.7157E-03     28.7205E-03     193.669E-03     94.9117E+06     914.486E+03    -39.1901E+06    -107.019E+06    -28.7555E+06    -77.3486E+06    -39.1901E+06    -48.1396E+06
            1731     98.4547E-03     12.2754E-03     97.6864E-03     116.526E-03    -57.5759E-03    -58.9499E-03    -56.4611E-03     114.046E-03    -57.5844E-03     40.5894E-03     218.922E-03     81.5600E+06     5.46064E+06    -49.0875E+06    -86.5828E+06    -26.8475E+06    -54.2747E+06    -49.0875E+06    -43.3621E+06
            1732     98.6302E-03     13.2188E-03     97.7404E-03     118.488E-03    -57.4535E-03    -61.0349E-03    -55.9313E-03     113.385E-03    -57.4535E-03     58.8567E-03     256.761E-03     81.4460E+06     29.1382E+06    -42.5554E+06    -59.0311E+06    -25.7982E+06     3.50312E+06    -50.1533E+06    -30.1661E+06
            1733     98.8298E-03     14.1644E-03     97.8095E-03     126.863E-03    -57.3342E-03    -69.5286E-03    -55.2896E-03     112.624E-03    -57.3342E-03     98.5190E-03     316.107E-03     122.158E+06     91.1682E+06    -25.4345E+06    -35.2396E+06    -22.5015E+06     87.8641E+06    -34.8683E+06    -13.1711E+06
            1734     99.1121E-03     15.1118E-03     97.9532E-03     142.870E-03    -57.4586E-03    -85.4119E-03    -54.7485E-03     112.207E-03    -57.4586E-03     154.423E-03     424.844E-03     156.246E+06     151.403E+06     33.1990E+06    -17.8245E+06    -15.8079E+06     151.222E+06     31.3630E+06    -3.27321E+06
            1735     99.4588E-03     16.0615E-03     98.1533E-03     135.073E-03    -57.6870E-03    -77.3859E-03    -53.6911E-03     111.378E-03    -57.6870E-03     126.822E-03     425.703E-03     160.507E+06     172.813E+06     112.971E+06    -6.86464E+06    -6.83299E+06     172.781E+06     112.971E+06    -1.17011E+06
            1736     98.6826E-03     942.958E-06     98.6781E-03     116.496E-03    -57.8128E-03    -58.6831E-03    -58.5224E-03     116.495E-03    -57.9722E-03     984.601E-06     117.051E-03     128.627E+06    -37.1336E+06    -39.9473E+06    -167.143E+06    -38.9310E+06    -166.395E+06    -38.8978E+06    -8.90404E+06
            1737     98.6956E-03     1.88713E-03     98.6775E-03     116.016E-03    -57.8196E-03    -58.1965E-03    -57.8375E-03     116.013E-03    -58.1754E-03     1.43571E-03     117.667E-03     119.547E+06    -33.4542E+06    -36.8810E+06    -154.660E+06     -38.131E+06    -152.581E+06    -34.2833E+06    -15.1602E+06
            1738     98.7195E-03     2.83186E-03     98.6789E-03     115.993E-03    -57.8819E-03    -58.1115E-03    -57.8744E-03     115.984E-03    -58.1100E-03     2.41378E-03     119.549E-03     124.856E+06    -26.0385E+06    -31.6169E+06    -153.571E+06    -35.6863E+06    -149.502E+06    -26.0385E+06    -21.5745E+06
            1739     98.7530E-03     3.77482E-03     98.6808E-03     115.925E-03    -57.8402E-03    -58.0845E-03    -57.8197E-03     115.903E-03    -58.0831E-03     3.82000E-03     122.235E-03     122.758E+06    -18.8295E+06    -25.6573E+06    -144.800E+06    -32.3701E+06    -138.087E+06    -18.8295E+06    -27.1856E+06
            1740     98.7971E-03     4.71975E-03     98.6843E-03     115.669E-03    -57.6211E-03    -58.0478E-03    -57.5789E-03     115.627E-03    -58.0478E-03     5.34817E-03     125.588E-03     120.042E+06    -12.0168E+06    -19.5838E+06    -135.602E+06    -28.2755E+06    -126.910E+06    -12.0168E+06    -30.5259E+06
            1741     98.8509E-03     5.66318E-03     98.6886E-03     115.666E-03    -57.6405E-03    -58.0253E-03    -57.5792E-03     115.594E-03    -58.0150E-03     6.96220E-03     130.209E-03     123.848E+06    -6.31158E+06    -13.3988E+06    -133.532E+06    -24.2359E+06    -122.695E+06    -6.31158E+06    -34.2911E+06
            1742     98.9150E-03     6.60728E-03     98.6941E-03     115.620E-03    -57.6432E-03    -57.9769E-03    -57.5279E-03     115.495E-03    -57.9666E-03     9.19105E-03     135.913E-03     122.342E+06    -5.39105E+06    -9.66994E+06    -129.795E+06    -22.2819E+06    -116.196E+06    -6.37874E+06    -38.1191E+06
            1743     98.9924E-03     7.55179E-03     98.7039E-03     115.461E-03    -57.4640E-03    -57.9975E-03    -57.3164E-03     115.242E-03    -57.9255E-03     12.1857E-03     142.686E-03     119.923E+06    -3.76270E+06    -7.77914E+06    -125.617E+06    -20.8327E+06    -111.139E+06    -5.18669E+06    -38.8664E+06
            1744     99.0816E-03     8.49615E-03     98.7166E-03     115.319E-03    -57.3299E-03    -57.9892E-03    -57.1168E-03     114.986E-03    -57.8694E-03     15.0695E-03     151.242E-03     117.107E+06     1.03178E+06    -5.94031E+06    -119.352E+06    -18.1866E+06    -102.332E+06    -3.74113E+06    -41.2497E+06
            1745     99.1787E-03     9.44046E-03     98.7284E-03     115.324E-03    -57.4304E-03    -57.8937E-03    -56.9599E-03     114.732E-03    -57.7721E-03     19.8671E-03     162.312E-03     112.827E+06     4.05415E+06    -10.3305E+06    -115.134E+06    -17.4542E+06    -93.6252E+06    -10.3305E+06    -45.7689E+06
            1746     99.2980E-03     10.3862E-03     98.7533E-03     115.568E-03    -57.5803E-03    -57.9873E-03    -56.9980E-03     114.678E-03    -57.6798E-03     24.7458E-03     175.967E-03     107.373E+06     6.05178E+06    -19.4375E+06    -111.611E+06    -19.5888E+06    -85.9708E+06    -19.4375E+06    -48.3263E+06
            1747     99.4213E-03     11.3311E-03     98.7735E-03     115.978E-03    -57.6012E-03    -58.3763E-03    -57.0498E-03     114.651E-03    -57.6012E-03     30.0369E-03     193.731E-03     97.2595E+06     6.84949E+06    -29.3641E+06    -103.029E+06    -22.3324E+06    -73.8471E+06    -29.3641E+06    -48.3637E+06
            1748     99.5699E-03     12.2729E-03     98.8106E-03     116.393E-03    -57.4875E-03    -58.9052E-03    -56.3691E-03     113.857E-03    -57.4875E-03     41.1966E-03     218.607E-03     85.4842E+06     8.06166E+06    -43.6763E+06    -89.0986E+06    -23.9832E+06    -57.0538E+06    -43.6763E+06    -45.4038E+06
            1749     99.7375E-03     13.2206E-03     98.8574E-03     118.212E-03    -57.3237E-03    -60.8886E-03    -55.7220E-03     113.046E-03    -57.3237E-03     59.0769E-03     255.890E-03     81.1367E+06     22.9262E+06    -43.5653E+06    -67.3128E+06    -21.8521E+06    -12.4804E+06    -53.6193E+06    -35.6458E+06
            1750     99.9429E-03     14.1666E-03     98.9338E-03     126.638E-03    -57.1371E-03    -69.5010E-03    -55.3731E-03     112.510E-03    -57.1371E-03     98.2770E-03     315.073E-03     119.509E+06     78.1683E+06    -25.6619E+06    -51.3460E+06    -17.4391E+06     69.9454E+06    -51.3460E+06    -20.0007E+06
            1751     100.215E-03     15.1125E-03     99.0693E-03     143.003E-03    -57.2254E-03    -85.7778E-03    -54.5455E-03     111.771E-03    -57.2254E-03     155.587E-03     424.527E-03     156.216E+06     144.874E+06     26.4987E+06    -29.1436E+06    -12.8748E+06     144.235E+06     10.8685E+06    -8.33033E+06
            1752     100.564E-03     16.0601E-03     99.2729E-03     134.932E-03    -57.4853E-03    -77.4468E-03    -53.1740E-03     110.659E-03    -57.4853E-03     127.627E-03     424.904E-03     157.287E+06     170.378E+06     103.263E+06    -5.93165E+06    -5.86673E+06     170.313E+06     103.263E+06    -2.07836E+06
            1753     99.8054E-03     944.858E-06     99.8010E-03     115.438E-03    -57.3237E-03    -58.1138E-03    -57.8901E-03     115.436E-03    -57.5455E-03     1.11867E-03     115.967E-03     128.736E+06    -19.6082E+06    -21.7113E+06    -149.381E+06    -21.5485E+06    -148.629E+06    -20.5228E+06    -8.96882E+06
            1754     99.8176E-03     1.88819E-03     99.7998E-03     115.834E-03    -57.7393E-03    -58.0952E-03    -58.0331E-03     115.831E-03    -57.7976E-03     1.57361E-03     117.473E-03     120.411E+06    -15.4187E+06    -18.4568E+06    -137.301E+06    -20.3957E+06    -135.362E+06    -15.4187E+06    -14.7624E+06
            1755     99.8413E-03     2.83149E-03     99.8012E-03     115.605E-03    -57.6079E-03    -57.9969E-03    -57.7145E-03     115.593E-03    -57.8788E-03     2.70019E-03     119.141E-03     124.644E+06    -8.66286E+06    -13.4558E+06    -135.617E+06    -17.5002E+06    -131.572E+06    -8.66286E+06    -21.4531E+06
            1756     99.8746E-03     3.77640E-03     99.8032E-03     115.227E-03    -57.4020E-03    -57.8247E-03    -57.3743E-03     115.199E-03    -57.8247E-03     4.26008E-03     121.439E-03     124.120E+06    -5.02187E+06    -8.37089E+06    -130.767E+06    -14.7521E+06    -124.386E+06    -5.02187E+06    -26.9972E+06
            1757     99.9172E-03     4.72013E-03     99.8056E-03     115.036E-03    -57.2886E-03    -57.7478E-03    -57.2345E-03     114.982E-03    -57.7478E-03     5.99604E-03     124.806E-03     121.543E+06    -1.03491E+06    -4.49735E+06    -124.238E+06    -13.0270E+06    -115.708E+06    -1.03491E+06    -30.6317E+06
            1758     99.9711E-03     5.66563E-03     99.8104E-03     115.073E-03    -57.3553E-03    -57.7182E-03    -57.2672E-03     114.975E-03    -57.7079E-03     8.12888E-03     129.363E-03     123.817E+06     4.70346E+06    -243.516E+03    -121.481E+06    -11.0455E+06    -110.679E+06     4.70346E+06    -34.4376E+06
            1759     100.035E-03     6.60947E-03     99.8167E-03     115.190E-03    -57.5006E-03    -57.6894E-03    -57.3345E-03     115.014E-03    -57.6791E-03     10.8760E-03     135.185E-03     123.964E+06     6.45988E+06     2.52767E+06    -119.411E+06    -9.33248E+06    -107.551E+06     6.45988E+06    -36.0394E+06
            1760     100.111E-03     7.55332E-03     99.8254E-03     114.853E-03    -57.2263E-03    -57.6266E-03    -56.9499E-03     114.576E-03    -57.6266E-03     13.6877E-03     141.792E-03     121.958E+06     7.35531E+06     3.83981E+06    -116.310E+06    -8.16902E+06    -102.248E+06     5.30143E+06    -38.8310E+06
            1761     100.197E-03     8.49972E-03     99.8362E-03     114.720E-03    -57.1186E-03    -57.6018E-03    -56.7572E-03     114.311E-03    -57.5540E-03     16.6531E-03     150.116E-03     118.214E+06     11.3896E+06     5.65508E+06    -109.561E+06    -5.91527E+06    -92.2558E+06     5.65508E+06    -42.2985E+06
            1762     100.298E-03     9.44390E-03     99.8526E-03     115.136E-03    -57.2730E-03    -57.8629E-03    -56.9924E-03     114.475E-03    -57.4827E-03     21.1428E-03     161.558E-03     112.351E+06     14.1413E+06     1.54849E+06    -103.862E+06    -5.34614E+06    -84.3743E+06     1.54849E+06    -43.7754E+06
            1763     100.409E-03     10.3886E-03     99.8705E-03     115.378E-03    -57.3177E-03    -58.0607E-03    -56.9885E-03     114.406E-03    -57.4172E-03     25.7864E-03     175.419E-03     105.909E+06     14.1672E+06    -8.21590E+06    -101.014E+06    -7.60810E+06    -79.2387E+06    -8.21590E+06    -45.0390E+06
            1764     100.541E-03     11.3323E-03     99.8999E-03     115.586E-03    -57.3573E-03    -58.2291E-03    -56.7474E-03     114.105E-03    -57.3573E-03     31.6646E-03     192.566E-03     96.1728E+06     13.6468E+06    -16.8018E+06    -93.8834E+06    -10.5993E+06    -69.6373E+06    -16.8018E+06    -44.7357E+06
            1765     100.680E-03     12.2789E-03     99.9286E-03     116.675E-03    -57.2634E-03    -59.4118E-03    -56.6038E-03     113.867E-03    -57.2634E-03     43.4587E-03     218.016E-03     85.7173E+06     14.1650E+06    -31.1568E+06    -83.4013E+06    -14.5324E+06    -54.7040E+06    -31.1568E+06    -44.1037E+06
            1766     100.851E-03     13.2229E-03     99.9801E-03     118.587E-03    -57.1062E-03    -61.4808E-03    -55.9305E-03     113.037E-03    -57.1062E-03     61.4164E-03     255.324E-03     81.6263E+06     22.0635E+06    -42.9715E+06    -68.5558E+06    -15.8633E+06    -23.3076E+06    -50.2929E+06    -39.7022E+06
            1767     101.051E-03     14.1679E-03     100.053E-03     126.553E-03    -56.8679E-03    -69.6853E-03    -55.1911E-03     112.059E-03    -56.8679E-03     99.7122E-03     314.480E-03     118.486E+06     68.0273E+06    -30.8092E+06    -62.9279E+06    -14.4061E+06     51.6242E+06    -62.9279E+06    -27.4276E+06
            1768     101.322E-03     15.1182E-03     100.187E-03     143.004E-03    -56.8945E-03    -86.1097E-03    -54.4006E-03     111.295E-03    -56.8945E-03     156.705E-03     423.678E-03     154.504E+06     134.592E+06     14.3566E+06    -38.8915E+06    -12.2996E+06     132.798E+06    -10.4407E+06    -12.4421E+06
            1769     101.672E-03     16.0669E-03     100.394E-03     134.499E-03    -57.1747E-03    -77.3246E-03    -52.6529E-03     109.828E-03    -57.1747E-03     128.493E-03     424.111E-03     156.804E+06     165.340E+06     89.1526E+06    -8.60595E+06    -8.52587E+06     165.260E+06     89.1526E+06    -2.64692E+06
            1770     100.925E-03     944.673E-06     100.921E-03     114.620E-03    -56.8708E-03    -57.7492E-03    -57.4153E-03     114.617E-03    -57.2021E-03     1.30334E-03     115.127E-03     127.825E+06    -2.15768E+06    -4.58643E+06    -131.175E+06    -3.91372E+06    -130.599E+06    -3.40585E+06    -7.80778E+06
            1771     100.941E-03     1.88904E-03     100.923E-03     114.739E-03    -57.1354E-03    -57.6033E-03    -57.4055E-03     114.732E-03    -57.3267E-03     2.02190E-03     116.337E-03     119.203E+06    -385.904E+03    -2.22731E+06    -120.496E+06    -3.21249E+06    -118.325E+06    -1.57187E+06    -15.2335E+06
            1772     100.962E-03     2.83314E-03     100.922E-03     114.617E-03    -57.1022E-03    -57.5144E-03    -57.2323E-03     114.597E-03    -57.3650E-03     3.45006E-03     118.059E-03     122.992E+06     6.42234E+06     3.49884E+06    -118.004E+06     -9.8685E+03    -113.643E+06     5.56998E+06    -22.5022E+06
            1773     100.995E-03     3.77793E-03     100.924E-03     114.255E-03    -56.8866E-03    -57.3687E-03    -56.8763E-03     114.214E-03    -57.3374E-03     5.25549E-03     120.304E-03     128.950E+06     13.2159E+06     10.0372E+06    -117.293E+06     3.89895E+06    -111.155E+06     13.2159E+06    -27.1819E+06
            1774     101.038E-03     4.72350E-03     100.927E-03     114.056E-03    -56.8086E-03    -57.2474E-03    -56.7264E-03     113.974E-03    -57.2474E-03     7.33013E-03     123.571E-03     127.382E+06     17.2071E+06     13.8774E+06    -111.798E+06     7.08068E+06    -103.543E+06     15.7490E+06    -31.1588E+06
            1775     101.090E-03     5.66756E-03     100.931E-03     113.996E-03    -56.8084E-03    -57.1881E-03    -56.6633E-03     113.851E-03    -57.1881E-03     9.81011E-03     127.966E-03     129.080E+06     20.8536E+06     16.3860E+06    -110.386E+06     8.41623E+06    -100.958E+06     19.3954E+06    -33.3800E+06
            1776     101.154E-03     6.61337E-03     100.938E-03     113.884E-03    -56.7520E-03    -57.1319E-03    -56.5139E-03     113.646E-03    -57.1319E-03     12.6020E-03     133.414E-03     130.953E+06     23.6017E+06     17.3176E+06    -110.361E+06     9.34530E+06    -99.9347E+06     21.1477E+06    -35.1674E+06
            1777     101.229E-03     7.55907E-03     100.946E-03     114.058E-03    -56.8564E-03    -57.2017E-03    -56.6274E-03     113.681E-03    -57.0536E-03     15.8795E-03     140.284E-03     124.262E+06     24.4309E+06     16.9319E+06    -103.395E+06     10.4729E+06    -90.5056E+06     18.0002E+06    -38.1589E+06
            1778     101.315E-03     8.50233E-03     100.957E-03     114.232E-03    -56.8731E-03    -57.3586E-03    -56.6707E-03     113.682E-03    -57.0112E-03     19.2183E-03     148.807E-03     119.352E+06     23.8211E+06     15.0100E+06    -99.6855E+06     8.66662E+06    -84.5310E+06     15.0100E+06    -40.3491E+06
            1779     101.413E-03     9.44887E-03     100.972E-03     114.644E-03    -56.8707E-03    -57.7738E-03    -56.7787E-03     113.760E-03    -56.9809E-03     24.2436E-03     160.081E-03     111.666E+06     22.4088E+06     10.5661E+06    -94.6666E+06     5.72044E+06    -77.9782E+06     10.5661E+06    -40.7920E+06
            1780     101.528E-03     10.3921E-03     100.995E-03     114.840E-03    -56.9396E-03    -57.9005E-03    -56.6597E-03     113.599E-03    -56.9396E-03     29.0126E-03     173.914E-03     103.547E+06     20.1374E+06     1.45697E+06    -91.3587E+06     2.46847E+06    -73.6898E+06     1.45697E+06    -40.5515E+06
            1781     101.651E-03     11.3388E-03     101.017E-03     114.870E-03    -56.8685E-03    -58.0010E-03    -56.1804E-03     113.049E-03    -56.8685E-03     34.9361E-03     190.368E-03     93.6035E+06     18.0246E+06    -10.2301E+06    -86.2054E+06    -1.74838E+06    -66.4324E+06    -10.2301E+06    -40.6101E+06
            1782     101.796E-03     12.2838E-03     101.052E-03     116.752E-03    -56.7959E-03    -59.9563E-03    -56.6711E-03     113.467E-03    -56.7959E-03     47.1261E-03     216.335E-03     82.7159E+06     20.4594E+06    -21.7701E+06    -74.0078E+06    -4.53661E+06    -49.0118E+06    -21.7701E+06    -41.3258E+06
            1783     101.963E-03     13.2280E-03     101.101E-03     118.721E-03    -56.6851E-03    -62.0362E-03    -56.2498E-03     112.935E-03    -56.6851E-03     63.0325E-03     254.430E-03     79.5712E+06     24.3278E+06    -39.3970E+06    -63.0623E+06    -8.49642E+06    -26.1128E+06    -43.5222E+06    -40.0047E+06
            1784     102.159E-03     14.1767E-03     101.170E-03     127.481E-03    -56.4818E-03    -70.9993E-03    -55.8481E-03     112.330E-03    -56.4818E-03     102.157E-03     314.403E-03     112.011E+06     58.1808E+06    -33.7437E+06    -65.0024E+06    -11.5101E+06     35.9471E+06    -65.0024E+06    -30.7485E+06
            1785     102.432E-03     15.1198E-03     101.310E-03     142.631E-03    -56.4665E-03    -86.1648E-03    -54.4944E-03     110.961E-03    -56.4665E-03     156.760E-03     423.218E-03     146.777E+06     119.264E+06    -2.57481E+06    -42.0032E+06    -11.9171E+06     116.311E+06    -29.7082E+06    -15.6357E+06
            1786     102.769E-03     16.0705E-03     101.505E-03     133.254E-03    -56.7334E-03    -76.5207E-03    -51.8235E-03     108.557E-03    -56.7334E-03     129.173E-03     423.723E-03     152.992E+06     157.824E+06     69.6370E+06    -8.46740E+06    -8.23858E+06     157.595E+06     69.6370E+06    -4.45663E+06
            1787     102.047E-03     944.304E-06     102.042E-03     113.329E-03    -56.3338E-03    -56.9948E-03    -56.7163E-03     113.322E-03    -56.6061E-03     1.90699E-03     113.830E-03     128.009E+06     17.8303E+06     13.6005E+06    -112.228E+06     16.0180E+06    -111.457E+06     14.6420E+06    -8.50004E+06
            1788     102.060E-03     1.89016E-03     102.042E-03     112.798E-03    -56.2297E-03    -56.5683E-03    -56.2154E-03     112.784E-03    -56.5683E-03     2.97392E-03     114.340E-03     120.501E+06     19.5522E+06     17.4346E+06    -101.988E+06     17.0786E+06    -99.5144E+06     17.4346E+06    -16.5619E+06
            1789     102.083E-03     2.83644E-03     102.043E-03     112.671E-03    -56.1809E-03    -56.4898E-03    -56.1797E-03     112.638E-03    -56.4585E-03     4.55015E-03     115.979E-03     124.059E+06     23.2012E+06     19.6912E+06    -102.562E+06     17.5916E+06    -97.9868E+06     20.7252E+06    -23.2612E+06
            1790     102.114E-03     3.78113E-03     102.044E-03     112.521E-03    -56.0881E-03    -56.4330E-03    -56.0422E-03     112.444E-03    -56.4016E-03     6.91446E-03     118.334E-03     129.356E+06     28.1788E+06     23.3032E+06    -103.539E+06     19.5347E+06    -96.7227E+06     25.1312E+06    -28.7937E+06
            1791     102.155E-03     4.72673E-03     102.046E-03     112.283E-03    -55.9638E-03    -56.3196E-03    -55.8106E-03     112.130E-03    -56.3196E-03     9.85227E-03     121.381E-03     128.567E+06     30.2381E+06     25.3093E+06    -100.716E+06     21.1086E+06    -92.3810E+06     26.1033E+06    -31.8189E+06
            1792     102.209E-03     5.67339E-03     102.051E-03     112.200E-03    -55.9537E-03    -56.2467E-03    -55.7063E-03     111.953E-03    -56.2467E-03     12.6817E-03     125.533E-03     131.455E+06     33.2062E+06     26.9071E+06    -101.264E+06     23.1970E+06    -92.1965E+06     27.8492E+06    -33.5199E+06
            1793     102.271E-03     6.61878E-03     102.056E-03     112.244E-03    -55.9332E-03    -56.3103E-03    -55.6683E-03     111.860E-03    -56.1916E-03     15.7606E-03     130.926E-03     134.576E+06     37.7284E+06     30.1729E+06    -100.438E+06     26.2945E+06    -89.9463E+06     31.1150E+06    -36.3253E+06
            1794     102.345E-03     7.56489E-03     102.065E-03     112.549E-03    -56.0137E-03    -56.5350E-03    -55.8358E-03     111.973E-03    -56.1372E-03     19.4490E-03     137.605E-03     128.742E+06     38.3720E+06     30.1150E+06    -94.2896E+06     26.9808E+06    -82.8984E+06     30.1150E+06    -37.1177E+06
            1795     102.432E-03     8.51188E-03     102.077E-03     113.033E-03    -56.1262E-03    -56.9064E-03    -56.0987E-03     112.225E-03    -56.1262E-03     23.1919E-03     146.153E-03     123.337E+06     37.7633E+06     29.1466E+06    -89.6512E+06     25.9593E+06    -77.8472E+06     29.1466E+06    -36.8077E+06
            1796     102.529E-03     9.45543E-03     102.092E-03     113.313E-03    -56.1130E-03    -57.2004E-03    -55.9071E-03     112.020E-03    -56.1130E-03     29.1724E-03     157.061E-03     117.624E+06     36.2744E+06     25.0197E+06    -86.5320E+06     23.9692E+06    -74.2267E+06     25.0197E+06    -36.5353E+06
            1797     102.643E-03     10.4032E-03     102.114E-03     113.817E-03    -56.0705E-03    -57.7467E-03    -56.0077E-03     112.078E-03    -56.0705E-03     34.2096E-03     170.561E-03     107.946E+06     33.4793E+06     15.1263E+06    -82.3498E+06     20.8476E+06    -69.7181E+06     15.1263E+06    -35.7472E+06
            1798     102.765E-03     11.3474E-03     102.136E-03     115.015E-03    -56.0440E-03    -58.9705E-03    -56.6173E-03     112.661E-03    -56.0440E-03     39.8293E-03     188.176E-03     94.7676E+06     30.2887E+06     1.68254E+06    -75.1843E+06     15.5997E+06    -60.4953E+06     1.68254E+06    -35.8988E+06
            1799     102.909E-03     12.2931E-03     102.172E-03     116.632E-03    -56.0361E-03    -60.5956E-03    -56.5729E-03     112.609E-03    -56.0361E-03     52.2048E-03     213.138E-03     80.0691E+06     27.3209E+06    -12.6991E+06    -64.2340E+06     8.29612E+06    -45.2093E+06    -12.6991E+06    -36.3111E+06
            1800     103.077E-03     13.2385E-03     102.223E-03     119.341E-03    -56.0048E-03    -63.3360E-03    -56.8353E-03     112.840E-03    -56.0048E-03     67.2905E-03     251.720E-03     72.1373E+06     27.2915E+06    -30.5602E+06    -51.2068E+06     1.44148E+06    -23.5262E+06    -32.3908E+06    -35.4213E+06
            1801     103.266E-03     14.1811E-03     102.288E-03     129.109E-03    -55.8808E-03    -73.2284E-03    -57.1729E-03     113.054E-03    -55.8808E-03     105.995E-03     312.836E-03     100.734E+06     48.8106E+06    -28.7327E+06    -62.5561E+06    -4.21497E+06     24.2929E+06    -62.5561E+06    -29.9360E+06
            1802     103.544E-03     15.1302E-03     102.433E-03     142.754E-03    -55.8608E-03    -86.8929E-03    -54.8803E-03     110.741E-03    -55.8608E-03     158.066E-03     420.888E-03     138.906E+06     103.809E+06    -7.95302E+06    -48.8829E+06    -6.35579E+06     99.0200E+06    -45.6909E+06    -17.6329E+06
            1803     103.868E-03     16.0791E-03     102.616E-03     132.847E-03    -56.1479E-03    -76.6987E-03    -51.6241E-03     107.772E-03    -56.1479E-03     131.197E-03     422.485E-03     148.866E+06     150.496E+06     59.6691E+06    -10.7891E+06    -4.69940E+06     150.152E+06     53.9239E+06    -5.38651E+06
            1804     103.165E-03     946.944E-06     103.160E-03     110.328E-03    -54.9193E-03    -55.4082E-03    -55.2022E-03     110.318E-03    -55.1157E-03     2.48129E-03     110.813E-03     122.104E+06     33.8248E+06     28.1171E+06    -91.0278E+06     31.2994E+06    -89.8595E+06     29.4742E+06    -10.9267E+06
            1805     103.177E-03     1.89313E-03     103.160E-03     109.837E-03    -54.7749E-03    -55.0625E-03    -54.7431E-03     109.806E-03    -55.0625E-03     4.26116E-03     111.297E-03     114.109E+06     32.7980E+06     29.0697E+06    -83.1129E+06     30.1331E+06    -80.4480E+06     29.0697E+06    -17.1475E+06
            1806     103.200E-03     2.83926E-03     103.161E-03     109.468E-03    -54.5447E-03    -54.9234E-03    -54.4670E-03     109.390E-03    -54.9234E-03     6.79075E-03     112.568E-03     119.647E+06     36.1885E+06     31.2250E+06    -85.8401E+06     31.1352E+06    -80.7868E+06     31.2250E+06    -24.0736E+06
            1807     103.230E-03     3.78755E-03     103.161E-03     109.438E-03    -54.6093E-03    -54.8290E-03    -54.4587E-03     109.282E-03    -54.8238E-03     9.77892E-03     114.849E-03     126.615E+06     40.4161E+06     33.6536E+06    -89.4430E+06     32.9668E+06    -81.9937E+06     33.6536E+06    -30.1544E+06
            1808     103.272E-03     4.73454E-03     103.163E-03     109.391E-03    -54.6204E-03    -54.7709E-03    -54.3488E-03     109.115E-03    -54.7657E-03     13.2307E-03     117.890E-03     132.666E+06     44.3226E+06     37.2698E+06    -91.7178E+06     35.6503E+06    -83.0454E+06     37.2698E+06    -33.2236E+06
            1809     103.323E-03     5.68136E-03     103.167E-03     109.320E-03    -54.5413E-03    -54.7792E-03    -54.1696E-03     108.861E-03    -54.6919E-03     16.9641E-03     121.678E-03     134.469E+06     48.0435E+06     38.1134E+06    -91.0870E+06     38.0471E+06    -81.0905E+06     38.1134E+06    -35.8693E+06
            1810     103.386E-03     6.62932E-03     103.174E-03     109.785E-03    -54.6264E-03    -55.1588E-03    -54.4293E-03     109.083E-03    -54.6540E-03     21.1151E-03     127.118E-03     136.185E+06     49.2264E+06     39.7300E+06    -91.4312E+06     38.3627E+06    -80.5674E+06     39.7300E+06    -37.5454E+06
            1811     103.460E-03     7.57589E-03     103.182E-03     110.143E-03    -54.6397E-03    -55.5031E-03    -54.4853E-03     109.125E-03    -54.6397E-03     25.4411E-03     133.507E-03     134.182E+06     49.3375E+06     39.4062E+06    -89.4632E+06     38.8970E+06    -79.0228E+06     39.4062E+06    -36.5996E+06
            1812     103.546E-03     8.52189E-03     103.195E-03     110.538E-03    -54.6215E-03    -55.9163E-03    -54.4687E-03     109.090E-03    -54.6215E-03     30.3066E-03     141.278E-03     127.164E+06     49.1378E+06     37.9002E+06    -83.2217E+06     39.2273E+06    -73.3113E+06     37.9002E+06    -34.8030E+06
            1813     103.643E-03     9.47058E-03     103.210E-03     111.593E-03    -54.6294E-03    -56.9639E-03    -54.9496E-03     109.579E-03    -54.6294E-03     36.1627E-03     152.379E-03     122.891E+06     48.3447E+06     35.1378E+06    -80.5595E+06     38.4582E+06    -70.6729E+06     35.1378E+06    -34.2618E+06
            1814     103.754E-03     10.4166E-03     103.230E-03     112.936E-03    -54.6582E-03    -58.2780E-03    -55.6755E-03     110.334E-03    -54.6582E-03     41.6042E-03     165.998E-03     114.968E+06     46.8292E+06     25.9405E+06    -77.0645E+06     36.9332E+06    -67.1685E+06     25.9405E+06    -33.4824E+06
            1815     103.882E-03     11.3628E-03     103.258E-03     114.683E-03    -54.7437E-03    -59.9388E-03    -56.5266E-03     111.270E-03    -54.7437E-03     47.8958E-03     183.720E-03     100.360E+06     43.3707E+06     17.1163E+06    -67.3711E+06     33.9685E+06    -57.9689E+06     17.1163E+06    -30.6309E+06
            1816     104.021E-03     12.3062E-03     103.290E-03     117.000E-03    -54.8488E-03    -62.1509E-03    -56.9374E-03     111.786E-03    -54.8488E-03     59.5987E-03     208.457E-03     80.6908E+06     38.6547E+06     5.60241E+06    -52.6711E+06     27.9604E+06    -41.9769E+06     5.60241E+06    -28.3022E+06
            1817     104.188E-03     13.2532E-03     103.342E-03     120.864E-03    -54.9312E-03    -65.9325E-03    -57.7296E-03     112.661E-03    -54.9312E-03     76.0546E-03     247.541E-03     65.2264E+06     33.9096E+06     -14.895E+06    -37.0473E+06     18.8622E+06    -21.3189E+06    -15.5760E+06    -27.3679E+06
            1818     104.385E-03     14.1967E-03     103.415E-03     130.294E-03    -54.9149E-03    -75.3788E-03    -57.7613E-03     112.676E-03    -54.9149E-03     112.510E-03     309.016E-03     84.4834E+06     43.9251E+06    -16.7593E+06    -49.0720E+06     7.71674E+06     19.4490E+06    -49.0720E+06    -23.3550E+06
            1819     104.647E-03     15.1404E-03     103.546E-03     145.281E-03    -54.9391E-03    -90.3419E-03    -56.3073E-03     111.246E-03    -54.9391E-03     164.616E-03     418.189E-03     127.135E+06     91.8208E+06    -6.66260E+06    -47.7278E+06    -2.50286E+06     87.6611E+06    -47.7278E+06    -15.0599E+06
            1820     104.978E-03     16.0899E-03     103.738E-03     133.949E-03    -55.2746E-03    -78.6740E-03    -52.6706E-03     107.945E-03    -55.2746E-03     133.443E-03     420.715E-03     142.412E+06     141.333E+06     49.9087E+06    -14.0701E+06    -4.24514E+06     140.941E+06     40.4752E+06    -5.34039E+06
            1821     104.278E-03     948.048E-06     104.274E-03     105.329E-03    -52.3800E-03    -52.9494E-03    -52.8618E-03     105.308E-03    -52.4460E-03     3.06831E-03     105.770E-03     115.966E+06     47.3784E+06     44.1819E+06     -70.131E+06     44.6791E+06    -68.9325E+06     45.6827E+06    -10.9202E+06
            1822     104.291E-03     1.89733E-03     104.274E-03     104.961E-03    -52.3894E-03    -52.5716E-03    -52.3220E-03     104.894E-03    -52.5716E-03     6.16669E-03     106.281E-03     111.229E+06     49.5191E+06     43.1076E+06    -64.6989E+06     46.2768E+06    -61.4566E+06     43.1076E+06    -18.4519E+06
            1823     104.312E-03     2.84759E-03     104.273E-03     104.816E-03    -52.2736E-03    -52.5426E-03    -52.1921E-03     104.658E-03    -52.4661E-03     9.64914E-03     107.605E-03     115.841E+06     52.8712E+06     43.3782E+06    -67.3819E+06     46.7968E+06    -61.3075E+06     43.3782E+06    -26.0571E+06
            1824     104.343E-03     3.79589E-03     104.274E-03     104.755E-03    -52.2776E-03    -52.4774E-03    -52.0509E-03     104.447E-03    -52.3957E-03     13.5324E-03     109.660E-03     125.343E+06     55.1137E+06     43.9130E+06    -75.3814E+06     46.7262E+06    -66.9938E+06     43.9130E+06    -31.9101E+06
            1825     104.384E-03     4.74515E-03     104.276E-03     104.722E-03    -52.2549E-03    -52.4669E-03    -51.8552E-03     104.177E-03    -52.3220E-03     17.9291E-03     112.371E-03     132.796E+06     57.7612E+06     44.0999E+06    -81.2472E+06     47.7790E+06    -71.2650E+06     44.0999E+06    -35.8084E+06
            1826     104.435E-03     5.69529E-03     104.279E-03     105.012E-03    -52.2251E-03    -52.7871E-03    -51.8766E-03     104.127E-03    -52.2505E-03     23.0537E-03     116.035E-03     133.355E+06     57.9812E+06     42.9366E+06    -82.2213E+06     47.4491E+06    -71.6893E+06     42.9366E+06    -36.9060E+06
            1827     104.498E-03     6.64421E-03     104.286E-03     105.452E-03    -52.2107E-03    -53.2416E-03    -51.8840E-03     104.095E-03    -52.2107E-03     28.5875E-03     120.881E-03     134.732E+06     57.3118E+06     42.6077E+06    -84.1047E+06     46.6964E+06    -73.4894E+06     42.6077E+06    -37.2441E+06
            1828     104.572E-03     7.59338E-03     104.296E-03     106.130E-03    -52.1875E-03    -53.9428E-03    -52.0269E-03     104.214E-03    -52.1875E-03     34.2127E-03     126.929E-03     135.442E+06     56.1350E+06     40.8732E+06    -86.2250E+06     46.0903E+06    -76.1803E+06     40.8732E+06    -36.4068E+06
            1829     104.656E-03     8.54420E-03     104.307E-03     107.321E-03    -52.1925E-03    -55.1280E-03    -52.5527E-03     104.745E-03    -52.1925E-03     40.1149E-03     134.616E-03     126.208E+06     53.7649E+06     38.4959E+06    -79.3643E+06     44.8424E+06    -70.4418E+06     38.4959E+06    -33.2659E+06
            1830     104.755E-03     9.49180E-03     104.324E-03     109.349E-03    -52.2869E-03    -57.0624E-03    -53.5675E-03     105.854E-03    -52.2869E-03     47.0760E-03     145.697E-03     120.207E+06     51.8243E+06     38.6119E+06    -74.3944E+06     42.7252E+06    -65.2953E+06     38.6119E+06    -32.6000E+06
            1831     104.868E-03     10.4383E-03     104.347E-03     111.841E-03    -52.4361E-03    -59.4052E-03    -54.9540E-03     107.390E-03    -52.4361E-03     53.8138E-03     159.682E-03     115.514E+06     47.6376E+06     28.7267E+06    -75.9528E+06     39.2865E+06    -67.6017E+06     28.7267E+06    -30.8990E+06
            1832     104.993E-03     11.3849E-03     104.373E-03     114.199E-03    -52.6572E-03    -61.5421E-03    -56.1735E-03     108.831E-03    -52.6572E-03     60.0197E-03     176.981E-03     97.7969E+06     41.9629E+06     19.8057E+06    -64.9979E+06     34.8476E+06    -57.8827E+06     19.8057E+06    -26.5466E+06
            1833     105.136E-03     12.3323E-03     104.410E-03     118.134E-03    -52.9528E-03    -65.1815E-03    -57.8578E-03     110.811E-03    -52.9528E-03     71.2616E-03     202.921E-03     76.6469E+06     37.9535E+06     12.9582E+06    -47.5862E+06     30.7827E+06    -40.4154E+06     12.9582E+06    -23.5980E+06
            1834     105.302E-03     13.2735E-03     104.462E-03     122.595E-03    -53.2481E-03    -69.3469E-03    -58.7722E-03     112.020E-03    -53.2481E-03     87.1243E-03     242.726E-03     58.2731E+06     33.2795E+06    -3.88870E+06    -31.4513E+06     25.7892E+06    -23.6509E+06    -4.19880E+06    -19.7389E+06
            1835     105.499E-03     14.2181E-03     104.537E-03     131.456E-03    -53.4346E-03    -78.0219E-03    -58.3914E-03     111.826E-03    -53.4346E-03     120.263E-03     304.362E-03     62.5534E+06     37.1765E+06    -2.42787E+06    -32.5493E+06     16.3618E+06     14.4121E+06    -28.5745E+06    -12.3016E+06
            1836     105.757E-03     15.1675E-03     104.664E-03     148.464E-03    -53.5561E-03    -94.9084E-03    -58.0517E-03     111.608E-03    -53.5561E-03     173.354E-03     414.869E-03     109.079E+06     84.2808E+06     3.76840E+06    -36.1751E+06     5.11242E+06     82.9367E+06    -36.1751E+06    -4.34731E+06
            1837     106.095E-03     16.1095E-03     104.865E-03     136.479E-03    -53.9968E-03    -82.4822E-03    -55.3379E-03     109.335E-03    -53.9968E-03     135.877E-03     419.698E-03     139.255E+06     137.250E+06     49.2672E+06    -16.7559E+06    -2.19835E+06     136.799E+06     35.1603E+06    -1.72098E+06
            1838     105.386E-03     952.874E-06     105.382E-03     97.9334E-03    -48.7848E-03    -49.1486E-03    -49.0764E-03     97.8937E-03    -48.8173E-03     4.35862E-03     98.3126E-03     106.314E+06     59.6361E+06     55.7053E+06    -48.4969E+06     58.0848E+06    -47.0894E+06     55.8490E+06    -10.3935E+06
            1839     105.398E-03     1.90499E-03     105.380E-03     98.0178E-03    -48.8824E-03    -49.1354E-03    -48.9690E-03     97.8934E-03    -48.9244E-03     8.13294E-03     99.1707E-03     100.077E+06     60.7371E+06     51.6929E+06    -43.4506E+06     56.3049E+06    -39.0185E+06     51.6929E+06    -20.4219E+06
            1840     105.419E-03     2.85631E-03     105.380E-03     97.9351E-03    -48.8486E-03    -49.0866E-03    -48.7335E-03     97.6287E-03    -48.8952E-03     12.8767E-03     100.360E-03     106.124E+06     62.3745E+06     47.5210E+06    -50.2882E+06     54.8662E+06    -42.7799E+06     47.5210E+06    -27.9740E+06
            1841     105.450E-03     3.80922E-03     105.381E-03     97.7837E-03    -48.7392E-03    -49.0445E-03    -48.3697E-03     97.1879E-03    -48.8182E-03     18.1665E-03     102.005E-03     116.944E+06     64.2195E+06     45.2819E+06    -60.9447E+06     54.1924E+06    -50.9176E+06     45.2819E+06    -33.9114E+06
            1842     105.489E-03     4.76271E-03     105.381E-03     98.0125E-03    -48.6871E-03    -49.3254E-03    -48.2495E-03     96.9783E-03    -48.7288E-03     24.0632E-03     104.519E-03     125.625E+06     64.2310E+06     43.6397E+06    -70.4004E+06     53.0561E+06    -59.2256E+06     43.6397E+06    -37.0977E+06
            1843     105.541E-03     5.71487E-03     105.387E-03     98.4568E-03    -48.6522E-03    -49.8046E-03    -48.1433E-03     96.7955E-03    -48.6522E-03     30.5735E-03     107.809E-03     129.556E+06     63.1510E+06     42.0725E+06    -75.6217E+06     52.2808E+06    -64.7515E+06     42.0725E+06    -37.2527E+06
            1844     105.603E-03     6.66788E-03     105.392E-03     99.1686E-03    -48.5914E-03    -50.5772E-03    -48.1006E-03     96.6921E-03    -48.5914E-03     37.5629E-03     112.153E-03     130.483E+06     60.4879E+06     40.7382E+06    -78.7188E+06     50.4572E+06    -68.6881E+06     40.7382E+06    -35.9087E+06
            1845     105.677E-03     7.62213E-03     105.402E-03     100.858E-03    -48.5996E-03    -52.2586E-03    -48.8711E-03     97.4707E-03    -48.5996E-03     44.4769E-03     118.340E-03     130.385E+06     55.6040E+06     40.1424E+06    -81.7910E+06     46.5512E+06    -72.7381E+06     40.1424E+06    -34.0197E+06
            1846     105.763E-03     8.57223E-03     105.415E-03     103.018E-03    -48.6831E-03    -54.3354E-03    -49.9274E-03     98.6104E-03    -48.6831E-03     51.2445E-03     126.116E-03     122.543E+06     51.1958E+06     36.0144E+06    -78.1797E+06     42.8657E+06    -69.8496E+06     36.0144E+06    -31.7288E+06
            1847     105.862E-03     9.52360E-03     105.433E-03     106.023E-03    -48.8887E-03    -57.1345E-03    -51.2358E-03     100.125E-03    -48.8887E-03     60.2234E-03     137.012E-03     112.193E+06     47.8902E+06     34.2644E+06    -70.4276E+06     38.0218E+06    -63.3750E+06     37.0801E+06    -27.5395E+06
            1848     105.977E-03     10.4748E-03     105.458E-03     110.075E-03    -49.2087E-03    -60.8661E-03    -53.7510E-03     102.960E-03    -49.2087E-03     67.9165E-03     151.514E-03     106.913E+06     38.5728E+06     27.5225E+06    -73.2286E+06     30.3434E+06    -67.8149E+06     30.3383E+06    -23.4639E+06
            1849     106.106E-03     11.4206E-03     105.489E-03     114.135E-03    -49.6424E-03    -64.4925E-03    -56.4417E-03     106.084E-03    -49.6424E-03     73.7715E-03     169.810E-03     86.0881E+06     28.2886E+06     17.6305E+06    -62.3629E+06     22.4551E+06    -57.0641E+06     18.1653E+06    -20.8058E+06
            1850     106.247E-03     12.3637E-03     105.525E-03     119.531E-03    -50.2184E-03    -69.3127E-03    -58.8466E-03     109.065E-03    -50.2184E-03     85.8654E-03     196.624E-03     63.7835E+06     22.7851E+06     11.5238E+06    -45.2680E+06     15.3443E+06    -38.5351E+06     12.2318E+06    -20.0680E+06
            1851     106.422E-03     13.3079E-03     105.586E-03     124.882E-03    -50.8304E-03    -74.0517E-03    -60.8125E-03     111.643E-03    -50.8304E-03     98.9701E-03     236.775E-03     45.5223E+06     14.9921E+06    -2.88436E+06    -35.2646E+06     9.75512E+06    -30.2009E+06    -2.71115E+06    -14.8396E+06
            1852     106.609E-03     14.2506E-03     105.652E-03     135.256E-03    -51.4134E-03    -83.8421E-03    -62.5617E-03     113.975E-03    -51.4134E-03     128.403E-03     300.833E-03     43.7026E+06     24.1517E+06    -4.03375E+06    -25.5896E+06     5.91846E+06     6.33839E+06    -17.7285E+06    -5.22279E+06
            1853     106.875E-03     15.1903E-03     105.790E-03     149.414E-03    -51.8766E-03    -97.5371E-03    -61.3282E-03     113.205E-03    -51.8766E-03     173.733E-03     412.649E-03     95.8183E+06     79.5969E+06     1.44747E+06    -25.0063E+06     1.84673E+06     79.1976E+06    -25.0063E+06     1.25475E+06
            1854     107.203E-03     16.1423E-03     105.980E-03     137.052E-03    -52.5724E-03    -84.4799E-03    -59.1690E-03     111.741E-03    -52.5724E-03     131.202E-03     421.029E-03     137.037E+06     136.882E+06     48.8360E+06    -14.5852E+06    -1.55753E+06     136.613E+06     36.0770E+06     2.16209E+06
            1855     106.484E-03     956.669E-06     106.480E-03     88.3399E-03    -43.9931E-03    -44.3468E-03    -44.2720E-03     88.2651E-03    -43.9931E-03     5.80717E-03     88.6527E-03     89.1810E+06     67.5869E+06     62.1529E+06    -24.1080E+06     65.5542E+06    -22.1958E+06     62.2734E+06    -11.6466E+06
            1856     106.496E-03     1.91325E-03     106.479E-03     88.4863E-03    -44.1075E-03    -44.3788E-03    -44.1390E-03     88.2465E-03    -44.1075E-03     10.5977E-03     89.4369E-03     85.0833E+06     68.7720E+06     57.6332E+06    -21.2814E+06     63.5670E+06    -16.0764E+06     57.6332E+06    -20.6753E+06
            1857     106.517E-03     2.87052E-03     106.478E-03     88.3853E-03    -44.0164E-03    -44.3689E-03    -43.7812E-03     87.8347E-03    -44.0535E-03     16.5772E-03     90.3747E-03     94.4161E+06     69.8910E+06     50.6674E+06    -32.5105E+06     60.5563E+06    -23.1759E+06     50.6674E+06    -29.1533E+06
            1858     106.546E-03     3.82818E-03     106.477E-03     88.5327E-03    -43.9106E-03    -44.6222E-03    -43.5287E-03     87.4765E-03    -43.9477E-03     23.0520E-03     91.9091E-03     105.290E+06     68.3609E+06     42.8983E+06    -47.2284E+06     56.7714E+06    -35.6389E+06     42.8983E+06    -34.5225E+06
            1859     106.587E-03     4.78479E-03     106.480E-03     88.9361E-03    -43.8462E-03    -45.0898E-03    -43.2810E-03     87.1272E-03    -43.8462E-03     30.2738E-03     94.1127E-03     114.123E+06     63.3068E+06     36.2429E+06    -61.7521E+06     51.6424E+06    -50.0877E+06     36.2429E+06    -36.2998E+06
            1860     106.637E-03     5.74292E-03     106.482E-03     89.6350E-03    -43.7411E-03    -45.8939E-03    -43.0787E-03     86.8198E-03    -43.7411E-03     38.0410E-03     97.0181E-03     115.390E+06      56.487E+06     29.8147E+06    -69.7803E+06     45.6211E+06    -58.9144E+06     29.8147E+06    -35.3296E+06
            1861     106.700E-03     6.70155E-03     106.489E-03     91.5077E-03    -43.7127E-03    -47.7950E-03    -43.7040E-03     87.4167E-03    -43.7127E-03     46.4302E-03     101.678E-03     114.006E+06     46.8924E+06     26.4045E+06    -75.8648E+06     38.1496E+06    -67.1220E+06     26.4045E+06    -31.4733E+06
            1862     106.775E-03     7.65672E-03     106.500E-03     94.1440E-03    -43.8069E-03    -50.3371E-03    -44.7633E-03     88.5703E-03    -43.8069E-03     54.9837E-03     107.848E-03     109.034E+06     37.0917E+06     25.1162E+06    -77.3952E+06     29.8116E+06    -70.1152E+06     25.1162E+06    -27.9237E+06
            1863     106.863E-03     8.61343E-03     106.516E-03     97.4476E-03    -44.0213E-03    -53.4263E-03    -46.3650E-03     90.3863E-03    -44.0213E-03     63.2099E-03     115.875E-03     101.841E+06     30.5173E+06     17.7519E+06    -77.0101E+06     20.3976E+06    -70.8939E+06     21.7553E+06    -24.2742E+06
            1864     106.962E-03     9.56795E-03     106.533E-03     102.523E-03    -44.4279E-03    -58.0954E-03    -49.1927E-03     93.6206E-03    -44.4279E-03     73.0725E-03     127.987E-03     90.7718E+06     28.1859E+06     9.72920E+06    -69.9487E+06     10.4368E+06    -65.9099E+06     23.4395E+06    -17.9288E+06
            1865     107.084E-03     10.5174E-03     106.567E-03     107.923E-03    -45.0350E-03    -62.8877E-03    -52.6177E-03     97.6527E-03    -45.0350E-03     80.8604E-03     143.037E-03     87.1297E+06     23.2823E+06     5.13217E+06    -70.4932E+06     2.70541E+06    -67.5040E+06     22.7198E+06    -14.7622E+06
            1866     107.214E-03     11.4657E-03     106.599E-03     113.672E-03    -45.7871E-03    -67.8846E-03    -56.5909E-03     102.378E-03    -45.7871E-03     87.3959E-03     162.454E-03     70.5574E+06     15.5793E+06     1.55498E+06    -59.7620E+06    -2.32029E+06    -55.3243E+06     15.0169E+06    -14.3106E+06
            1867     107.363E-03     12.4102E-03     106.644E-03     121.054E-03    -46.7381E-03    -74.3158E-03    -60.8521E-03     107.590E-03    -46.7381E-03     98.8124E-03     190.590E-03     49.5993E+06     11.6646E+06     -595.23E+03    -41.6262E+06    -6.37427E+06    -35.8471E+06     11.6646E+06    -13.7068E+06
            1868     107.535E-03     13.3509E-03     106.703E-03     128.515E-03    -47.8090E-03    -80.7063E-03    -65.2541E-03     113.063E-03    -47.8090E-03     109.423E-03     233.097E-03     37.8205E+06    -1.18469E+06    -13.3725E+06    -42.6996E+06    -11.7483E+06    -38.8148E+06    -6.69377E+06    -10.7425E+06
            1869     107.733E-03     14.2857E-03     106.782E-03     140.755E-03    -48.9434E-03    -91.8113E-03    -69.1289E-03     118.072E-03    -48.9434E-03     136.928E-03     300.375E-03     41.4234E+06     14.5226E+06    -15.9208E+06    -31.3297E+06    -14.4167E+06     1.23686E+06    -19.5480E+06    -4.28264E+06
            1870     107.996E-03     15.2203E-03     106.918E-03     153.650E-03    -50.0433E-03    -103.606E-03    -68.9707E-03     119.014E-03    -50.0433E-03     175.116E-03     415.024E-03     95.6377E+06     80.1350E+06    -9.90359E+06    -19.7158E+06    -13.6215E+06     80.0085E+06    -15.8713E+06    -1.26153E+06
            1871     108.308E-03     16.1539E-03     107.097E-03     141.257E-03    -51.3050E-03    -89.9517E-03    -66.8879E-03     118.193E-03    -51.3050E-03     129.102E-03     428.474E-03     135.909E+06     135.389E+06     46.7126E+06    -10.3889E+06    -7.94310E+06     135.283E+06     44.3721E+06    -627.725E+03
            1872     107.570E-03     962.740E-06     107.566E-03     76.2670E-03    -37.9982E-03    -38.2689E-03    -38.1221E-03     76.1305E-03    -38.0084E-03     7.28160E-03     76.5058E-03     69.3117E+06     71.0607E+06     66.5449E+06    -282.387E+03     68.1124E+06     2.14025E+06     67.0706E+06    -11.0974E+06
            1873     107.582E-03     1.92549E-03     107.565E-03     76.1781E-03    -37.9708E-03    -38.2073E-03    -37.7968E-03     75.7779E-03    -37.9811E-03     13.0216E-03     76.8939E-03     66.5182E+06     70.9244E+06     57.4502E+06    -1.02977E+06     64.4445E+06     5.45007E+06     57.4502E+06    -19.9671E+06
            1874     107.602E-03     2.88855E-03     107.563E-03     76.4961E-03    -37.8769E-03    -38.6192E-03    -37.7038E-03     75.5807E-03    -37.8769E-03     19.8140E-03     77.9642E-03     73.5486E+06     67.8170E+06     45.1828E+06    -14.1520E+06     57.6251E+06    -3.95998E+06     45.1828E+06    -26.8375E+06
            1875     107.632E-03     3.85084E-03     107.563E-03     76.9877E-03    -37.7875E-03    -39.2001E-03    -37.4735E-03     75.2610E-03    -37.7875E-03     27.4842E-03     79.4622E-03     83.0983E+06     58.7534E+06     29.6988E+06    -34.7921E+06     47.4282E+06    -23.4669E+06     29.6988E+06    -30.4193E+06
            1876     107.672E-03     4.81478E-03     107.564E-03     77.7451E-03    -37.6871E-03    -40.0580E-03    -37.1995E-03     74.8867E-03    -37.6871E-03     35.6679E-03     81.4757E-03     88.6966E+06     46.0184E+06     14.3369E+06    -53.9979E+06     35.8371E+06    -43.8166E+06     14.3369E+06    -30.1404E+06
            1877     107.722E-03     5.77852E-03     107.567E-03     79.6225E-03    -37.6445E-03    -41.9780E-03    -37.6462E-03     75.2907E-03    -37.6445E-03     44.5129E-03     84.8906E-03     84.6362E+06     29.7669E+06     2.94545E+06    -64.8793E+06     21.7251E+06    -56.8375E+06     2.94545E+06    -26.2754E+06
            1878     107.786E-03     6.74014E-03     107.575E-03     82.5135E-03    -37.7471E-03    -44.7664E-03    -38.5642E-03     76.3114E-03    -37.7471E-03     54.2045E-03     89.8450E-03     81.1802E+06     13.6503E+06    -1.51358E+06    -73.7595E+06     7.90556E+06    -68.0148E+06    -1.51358E+06    -21.5429E+06
            1879     107.863E-03     7.70281E-03     107.588E-03     86.1875E-03    -38.0024E-03    -48.1851E-03    -40.0544E-03     78.0568E-03    -38.0024E-03     63.6750E-03     96.2893E-03     76.5872E+06     5.98634E+06    -6.42640E+06    -75.4106E+06    -4.73659E+06    -71.4779E+06     363.909E+03    -16.2773E+06
            1880     107.952E-03     8.66299E-03     107.604E-03     91.7149E-03    -38.4774E-03    -53.2375E-03    -43.2379E-03     81.7153E-03    -38.4774E-03     73.1483E-03     105.951E-03     75.3145E+06     6.83383E+06    -16.2434E+06    -75.8032E+06    -17.0932E+06    -73.4505E+06     5.33093E+06    -11.1280E+06
            1881     108.060E-03     9.61766E-03     107.631E-03     98.7620E-03    -39.2058E-03    -59.5563E-03    -47.4126E-03     86.6184E-03    -39.2058E-03     83.9557E-03     119.551E-03     70.9059E+06     10.5938E+06    -23.2104E+06    -69.0349E+06    -24.8653E+06    -67.3800E+06     10.5938E+06    -8.26053E+06
            1882     108.183E-03     10.5709E-03     107.665E-03     105.823E-03    -40.1852E-03    -65.6375E-03    -52.0798E-03     92.2650E-03    -40.1852E-03     92.3698E-03     135.760E-03     71.8989E+06     14.3402E+06    -25.8264E+06    -67.5338E+06    -27.4488E+06    -65.9114E+06     14.3402E+06    -7.91094E+06
            1883     108.321E-03     11.5186E-03     107.707E-03     113.573E-03    -41.3771E-03    -72.1955E-03    -57.9134E-03     99.2906E-03    -41.3771E-03     98.9005E-03     157.103E-03     61.5729E+06     12.2434E+06    -22.6816E+06    -58.0613E+06    -28.8503E+06    -51.8926E+06     12.2434E+06    -9.10584E+06
            1884     108.476E-03     12.4603E-03     107.758E-03     123.340E-03    -42.8528E-03    -80.4869E-03    -64.8023E-03     107.655E-03    -42.8528E-03     108.611E-03     187.803E-03     47.8138E+06     11.1784E+06    -20.7539E+06    -43.2040E+06    -29.7494E+06    -34.2085E+06     11.1784E+06    -9.44965E+06
            1885     108.656E-03     13.3954E-03     107.828E-03     133.208E-03    -44.5392E-03    -88.6689E-03    -71.6397E-03     116.179E-03    -44.5392E-03     118.109E-03     233.456E-03     39.6524E+06    -4.04026E+06    -24.4522E+06    -48.0542E+06    -28.2219E+06    -42.0262E+06    -6.29859E+06    -9.32865E+06
            1886     108.859E-03     14.3260E-03     107.913E-03     145.725E-03    -46.3226E-03    -99.4027E-03    -76.5403E-03     122.863E-03    -46.3226E-03     141.820E-03     302.793E-03     43.9200E+06     10.8185E+06    -17.4801E+06    -37.0701E+06    -25.0975E+06    -1.15408E+06    -17.4801E+06    -7.69411E+06
            1887     109.124E-03     15.2552E-03     108.053E-03     159.246E-03    -48.1582E-03    -111.088E-03    -78.7231E-03     126.881E-03    -48.1582E-03     175.086E-03     420.663E-03     95.9804E+06     83.5339E+06    -2.16102E+06    -19.3260E+06    -18.5734E+06     82.7813E+06    -2.16102E+06    -7.11905E+06
            1888     109.441E-03     16.1815E-03     108.238E-03     149.863E-03    -50.2162E-03    -99.6469E-03    -79.1141E-03     129.330E-03    -50.2162E-03     125.057E-03     438.452E-03     136.334E+06     134.214E+06     62.9894E+06    -10.8440E+06    -10.2806E+06     133.651E+06     62.9894E+06    -6.74618E+06
            1889     108.642E-03     969.401E-06     108.638E-03     61.8978E-03    -30.8320E-03    -31.0658E-03    -30.8654E-03     61.7077E-03    -30.8423E-03     7.81237E-03     62.0611E-03     43.2037E+06     66.4665E+06     58.5598E+06     20.7303E+06     62.5529E+06     24.2388E+06     58.9650E+06    -9.43035E+06
            1890     108.654E-03     1.93964E-03     108.636E-03     62.0463E-03    -30.7679E-03    -31.2785E-03    -30.6745E-03     61.4526E-03    -30.7781E-03     14.2327E-03     62.5188E-03     41.6847E+06     63.8030E+06     46.6170E+06     16.8803E+06     55.5736E+06     25.1097E+06     46.6170E+06    -17.4204E+06
            1891     108.674E-03     2.90916E-03     108.635E-03     62.6360E-03    -30.6981E-03    -31.9380E-03    -30.5899E-03     61.2880E-03    -30.6981E-03     21.8385E-03     63.5818E-03     48.8198E+06     54.3056E+06     29.5722E+06    -1.36413E+06     45.0511E+06     7.89034E+06     29.5722E+06    -20.5337E+06
            1892     108.704E-03     3.87952E-03     108.634E-03     63.6354E-03    -30.6404E-03    -32.9950E-03    -30.5173E-03     61.1576E-03    -30.6404E-03     30.0497E-03     65.2137E-03     54.4912E+06     38.2748E+06     10.1957E+06    -24.0573E+06     30.6776E+06    -16.4602E+06     10.1957E+06    -20.0353E+06
            1893     108.742E-03     4.84925E-03     108.634E-03     65.6920E-03    -30.6563E-03    -35.0356E-03    -31.0048E-03     61.6611E-03    -30.6563E-03     38.9793E-03     68.0492E-03     55.9319E+06     16.0393E+06    -8.91349E+06    -47.9227E+06     11.1471E+06    -43.0305E+06    -8.91349E+06    -15.7892E+06
            1894     108.795E-03     5.81788E-03     108.639E-03     68.7769E-03    -30.8018E-03    -37.9752E-03    -31.9180E-03     62.7198E-03    -30.8018E-03     48.8969E-03     72.1820E-03     50.9593E+06    -6.59252E+06    -22.9560E+06    -63.4123E+06    -9.70198E+06    -60.3028E+06    -22.9560E+06    -9.23657E+06
            1895     108.860E-03     6.78634E-03     108.648E-03     72.8089E-03    -31.1288E-03    -41.6801E-03    -33.3447E-03     64.4735E-03    -31.1288E-03     59.1419E-03     77.7977E-03     49.5403E+06    -18.8490E+06    -31.9957E+06    -72.2637E+06    -28.9554E+06    -69.7375E+06    -24.4156E+06    -4.82334E+06
            1896     108.939E-03     7.75282E-03     108.662E-03     78.6385E-03    -31.6952E-03    -46.9433E-03    -36.3053E-03     68.0005E-03    -31.6952E-03     69.6766E-03     86.0422E-03     55.7128E+06    -14.4400E+06    -41.2481E+06    -75.7567E+06    -42.3270E+06    -74.3436E+06    -14.7742E+06    -2.00518E+06
            1897     109.035E-03     8.71458E-03     108.687E-03     86.0366E-03    -32.5392E-03    -53.4974E-03    -40.6333E-03     73.1725E-03    -32.5392E-03     80.5114E-03     97.2620E-03     64.4157E+06    -1.94198E+06    -46.5644E+06    -74.3286E+06    -47.0773E+06    -73.8157E+06    -1.94198E+06    -1.49005E+06
            1898     109.147E-03     9.67395E-03     108.718E-03     94.5923E-03    -33.6462E-03    -60.9461E-03    -45.8502E-03     79.4963E-03    -33.6462E-03     91.9588E-03     112.132E-03     67.0160E+06       7.982E+06    -45.3856E+06    -66.4008E+06    -45.9469E+06    -65.8395E+06       7.982E+06    -3.02966E+06
            1899     109.278E-03     10.6268E-03     108.761E-03     104.238E-03    -35.0665E-03    -69.1713E-03    -52.8068E-03     87.8733E-03    -35.0665E-03     101.276E-03     130.819E-03     70.5522E+06     14.7541E+06    -41.0096E+06    -64.0831E+06    -42.2414E+06    -62.8513E+06     14.7541E+06    -4.83670E+06
            1900     109.425E-03     11.5724E-03     108.811E-03     114.873E-03    -36.8231E-03    -78.0497E-03    -61.4358E-03     98.2589E-03    -36.8231E-03     108.173E-03     155.123E-03     62.0567E+06     15.3750E+06    -32.6783E+06    -54.3026E+06    -38.5118E+06    -48.4690E+06     15.3750E+06    -5.99458E+06
            1901     109.590E-03     12.5107E-03     108.874E-03     126.674E-03    -38.9580E-03    -87.7159E-03    -70.3199E-03     109.278E-03    -38.9580E-03     117.068E-03     188.253E-03     52.8158E+06     18.4989E+06    -23.7706E+06    -40.4219E+06    -34.4176E+06    -29.7749E+06     18.4989E+06    -7.84519E+06
            1902     109.782E-03     13.4409E-03     108.956E-03     138.484E-03    -41.3296E-03    -97.1545E-03    -79.0573E-03     120.387E-03    -41.3296E-03     125.458E-03     235.736E-03     45.8132E+06     1.76942E+06    -21.0902E+06    -47.8421E+06    -29.7230E+06    -38.7473E+06     1.30741E+06    -11.6142E+06
            1903     109.991E-03     14.3624E-03     109.049E-03     152.180E-03    -43.8753E-03    -108.305E-03    -86.2596E-03     130.135E-03    -43.8753E-03     144.627E-03     308.292E-03     52.9016E+06     18.3868E+06    -5.01007E+06    -39.8411E+06    -24.0944E+06     2.58346E+06    -4.95343E+06    -14.6598E+06
            1904     110.260E-03     15.2791E-03     109.196E-03     166.029E-03    -46.5368E-03    -119.492E-03    -89.9149E-03     136.452E-03    -46.5368E-03     173.716E-03     428.994E-03     91.6465E+06     85.8072E+06     17.3797E+06    -17.4044E+06    -14.4227E+06     82.8255E+06     17.3797E+06    -16.2807E+06
            1905     110.578E-03     16.1920E-03     109.386E-03     159.317E-03    -49.3716E-03    -109.945E-03    -91.8210E-03     141.193E-03    -49.3716E-03     120.273E-03     445.993E-03     122.895E+06     125.577E+06     77.0808E+06    -5.18947E+06    -3.92781E+06     124.316E+06     77.0808E+06    -10.4189E+06
            1906     109.698E-03     977.489E-06     109.693E-03     46.6570E-03    -23.1548E-03    -23.5022E-03    -23.2602E-03     46.4150E-03    -23.1548E-03     7.49505E-03     46.7467E-03     24.2327E+06     58.6867E+06     46.4408E+06     32.3665E+06     49.5123E+06     42.7247E+06     45.2569E+06    -7.19083E+06
            1907     109.709E-03     1.95440E-03     109.692E-03     47.0430E-03    -23.1334E-03    -23.9095E-03    -23.1218E-03     46.2552E-03    -23.1334E-03     14.2961E-03     47.2931E-03     28.1548E+06     49.8448E+06     31.3682E+06     17.9997E+06     37.3267E+06     35.8894E+06     25.9967E+06    -10.3144E+06
            1908     109.730E-03     2.93182E-03     109.691E-03     47.9780E-03    -23.0927E-03    -24.8853E-03    -23.1578E-03     46.2505E-03    -23.0927E-03     21.7077E-03     48.4751E-03     30.2670E+06     28.7155E+06     10.0381E+06    -5.96115E+06     18.9992E+06     11.0334E+06     2.75980E+06    -8.31024E+06
            1909     109.758E-03     3.90906E-03     109.689E-03     49.9915E-03    -23.1465E-03    -26.8449E-03    -23.7045E-03     46.8510E-03    -23.1465E-03     29.9871E-03     50.8171E-03     32.1126E+06     4.87787E+06    -18.0161E+06    -31.1983E+06    -4.24306E+06    -18.7413E+06    -21.3522E+06    -2.42605E+06
            1910     109.800E-03     4.88510E-03     109.692E-03     53.2915E-03    -23.3838E-03    -29.9077E-03    -24.7917E-03     48.1755E-03    -23.3838E-03     39.5647E-03     54.6147E-03     34.2907E+06    -19.6559E+06    -38.0849E+06    -58.0479E+06    -28.3086E+06    -49.3952E+06    -38.0849E+06     4.88248E+06
            1911     109.853E-03     5.85994E-03     109.697E-03     57.6292E-03    -23.8061E-03    -33.8231E-03    -26.3380E-03     50.1441E-03    -23.8061E-03     49.8511E-03     59.7307E-03     36.3340E+06    -35.4374E+06    -45.2595E+06    -75.4629E+06    -47.6314E+06    -65.6382E+06    -42.8902E+06     10.0448E+06
            1912     109.921E-03     6.83327E-03     109.709E-03     63.6773E-03    -24.4663E-03    -39.2110E-03    -29.1008E-03     53.5672E-03    -24.4663E-03     61.0451E-03     67.1755E-03     41.5512E+06    -33.0101E+06    -50.6965E+06    -79.3728E+06    -58.9321E+06    -70.6292E+06    -33.5181E+06     11.0465E+06
            1913     110.006E-03     7.80222E-03     109.728E-03     71.4874E-03    -25.4114E-03    -46.0759E-03    -33.2010E-03     58.6125E-03    -25.4114E-03     73.2560E-03     77.2676E-03     53.4294E+06    -17.0945E+06    -57.2079E+06    -77.0875E+06    -62.0473E+06    -72.2481E+06    -17.0945E+06     7.45406E+06
            1914     110.108E-03     8.76817E-03     109.759E-03     80.4066E-03    -26.6327E-03    -53.7738E-03    -38.4186E-03     65.0513E-03    -26.6327E-03     85.3180E-03     89.8584E-03     63.3016E+06    -2.10350E+06    -57.9721E+06    -70.7198E+06    -59.0430E+06    -69.6490E+06    -2.10350E+06     2.00148E+06
            1915     110.227E-03     9.72767E-03     109.797E-03     91.1980E-03    -28.1614E-03    -63.0366E-03    -45.4283E-03     73.5897E-03    -28.1614E-03     98.0157E-03     106.854E-03     67.7626E+06     9.40794E+06    -52.0248E+06    -63.2136E+06    -52.7190E+06    -62.5194E+06     9.40794E+06    -2.14593E+06
            1916     110.370E-03     10.6812E-03     109.852E-03     103.611E-03    -30.0846E-03    -73.5263E-03    -54.6987E-03     84.7833E-03    -30.0846E-03     109.082E-03     128.210E-03     69.9601E+06     16.2611E+06    -43.3298E+06    -60.5356E+06    -45.9794E+06    -57.8859E+06     16.2611E+06    -5.94375E+06
            1917     110.528E-03     11.6250E-03     109.915E-03     116.874E-03    -32.4385E-03    -84.4356E-03    -65.5047E-03     97.9432E-03    -32.4385E-03     117.419E-03     154.853E-03     62.9201E+06     18.2842E+06    -31.2716E+06    -52.0703E+06    -38.0178E+06    -45.3241E+06     18.2842E+06    -8.73559E+06
            1918     110.708E-03     12.5567E-03     109.994E-03     130.765E-03    -35.2272E-03    -95.5382E-03    -76.1876E-03     111.415E-03    -35.2272E-03     126.510E-03     190.186E-03     56.0891E+06     25.5593E+06    -14.8778E+06    -37.8790E+06    -28.9219E+06    -23.8349E+06     25.5593E+06    -10.5945E+06
            1919     110.907E-03     13.4814E-03     110.085E-03     145.369E-03    -38.2951E-03    -107.074E-03    -87.1046E-03     125.400E-03    -38.2951E-03     136.206E-03     240.275E-03     53.7466E+06     10.6083E+06    -9.80724E+06    -47.7623E+06    -21.8749E+06    -35.6946E+06     10.6083E+06    -13.7560E+06
            1920     111.137E-03     14.3951E-03     110.200E-03     161.470E-03    -41.6203E-03    -119.849E-03    -97.0997E-03     138.720E-03    -41.6203E-03     153.291E-03     315.655E-03     73.0940E+06     38.6791E+06     9.87325E+06    -42.2622E+06    -18.5246E+06     14.1296E+06     10.6851E+06    -18.0765E+06
            1921     111.405E-03     15.3020E-03     110.349E-03     176.246E-03    -45.0960E-03    -131.150E-03    -102.434E-03     147.530E-03    -45.0960E-03     178.657E-03     436.753E-03     98.8626E+06     92.3207E+06     28.5356E+06    -21.0925E+06    -15.6028E+06     86.8310E+06     28.5356E+06    -23.2384E+06
            1922     111.735E-03     16.2047E-03     110.554E-03     169.980E-03    -48.6737E-03    -121.306E-03    -103.902E-03     152.576E-03    -48.6737E-03     122.245E-03     451.160E-03     112.573E+06     111.577E+06     72.8118E+06    -9.47285E+06    -6.11817E+06     105.329E+06     75.7059E+06    -14.6549E+06
            1923     110.737E-03     984.451E-06     110.733E-03     31.8115E-03    -15.6680E-03    -16.1434E-03    -15.8524E-03     31.5205E-03    -15.6680E-03     6.85262E-03     31.8469E-03     33.5173E+06     52.5253E+06     21.6712E+06     17.7544E+06     22.1430E+06     50.4524E+06     19.3555E+06     317.384E+03
            1924     110.749E-03     1.96918E-03     110.732E-03     32.5658E-03    -15.7418E-03    -16.8240E-03    -15.9324E-03     31.6742E-03    -15.7418E-03     12.7218E-03     32.6604E-03     40.2259E+06     37.4334E+06     2.20855E+06    -5.08949E+06     4.15730E+06     34.6900E+06    -4.29486E+06     3.71017E+06
            1925     110.769E-03     2.95377E-03     110.729E-03     34.3171E-03    -15.8590E-03    -18.4580E-03    -16.4889E-03     32.3479E-03    -15.8590E-03     19.6339E-03     34.5231E-03     39.4795E+06     9.71160E+06    -21.9582E+06    -33.2017E+06    -19.3975E+06     3.18562E+06    -29.2365E+06     11.5175E+06
            1926     110.800E-03     3.93674E-03     110.730E-03     37.3199E-03    -16.1464E-03    -21.1735E-03    -17.5684E-03     33.7148E-03    -16.1464E-03     27.8103E-03     37.7256E-03     42.7087E+06    -14.3619E+06    -45.8684E+06    -61.8456E+06    -43.2763E+06    -29.5951E+06    -49.2045E+06     20.1988E+06
            1927     110.842E-03     4.91883E-03     110.733E-03     41.5821E-03    -16.6476E-03    -24.9345E-03    -19.1316E-03     35.7792E-03    -16.6476E-03     37.2901E-03     42.3666E-03     44.4785E+06    -34.8514E+06    -54.8902E+06    -84.0196E+06    -61.3403E+06    -57.5307E+06    -54.8902E+06     24.4359E+06
            1928     110.900E-03     5.89924E-03     110.743E-03     47.4684E-03    -17.3667E-03    -30.1017E-03    -21.6891E-03     39.0558E-03    -17.3667E-03     48.0716E-03     48.9671E-03     46.7747E+06    -41.8036E+06    -52.0188E+06    -92.7124E+06    -70.8522E+06    -68.2159E+06    -47.4668E+06     23.1069E+06
            1929     110.971E-03     6.87566E-03     110.758E-03     55.2530E-03    -18.3405E-03    -36.9124E-03    -25.4058E-03     43.7463E-03    -18.3405E-03     60.7726E-03     58.0996E-03     49.1317E+06    -32.8260E+06    -51.4474E+06    -87.8242E+06    -71.5359E+06    -67.7356E+06    -32.8260E+06     17.8975E+06
            1930     111.063E-03     7.84904E-03     110.785E-03     64.4497E-03    -19.5927E-03    -44.8570E-03    -30.2246E-03     49.8173E-03    -19.5927E-03     74.3361E-03     69.4799E-03     54.4380E+06    -16.4428E+06    -55.2001E+06    -77.7144E+06    -67.4516E+06    -65.4629E+06    -16.4428E+06     10.5260E+06
            1931     111.171E-03     8.81680E-03     110.821E-03     75.2835E-03    -21.1531E-03    -54.1305E-03    -36.6968E-03     57.8498E-03    -21.1531E-03     88.2873E-03     83.8985E-03     61.0875E+06    -1.74875E+06    -56.9828E+06    -67.1134E+06    -61.5261E+06    -62.5700E+06    -1.74875E+06     2.51391E+06
            1932     111.303E-03     9.77854E-03     110.872E-03     88.7429E-03    -23.0913E-03    -65.6516E-03    -45.5379E-03     68.6292E-03    -23.0913E-03     103.861E-03     103.364E-03     65.8201E+06     9.44727E+06    -50.1536E+06    -60.9435E+06    -54.3692E+06    -56.7279E+06     9.44727E+06    -4.04041E+06
            1933     111.455E-03     10.7303E-03     110.938E-03     103.832E-03    -25.4900E-03    -78.3417E-03    -56.6093E-03     82.0992E-03    -25.4900E-03     117.944E-03     127.137E-03     67.6785E+06     16.6939E+06    -37.3857E+06    -58.7559E+06    -45.2432E+06    -50.8984E+06     16.6939E+06    -9.78002E+06
            1934     111.633E-03     11.6709E-03     111.021E-03     119.005E-03    -28.3548E-03    -90.6505E-03    -68.6125E-03     96.9674E-03    -28.3548E-03     128.427E-03     155.214E-03     63.0267E+06     19.0502E+06    -24.9301E+06    -52.9426E+06    -35.6707E+06    -42.2021E+06     19.0502E+06    -13.4665E+06
            1935     111.824E-03     12.6033E-03     111.112E-03     135.309E-03    -31.6771E-03    -103.632E-03    -81.1828E-03     112.860E-03    -31.6771E-03     139.323E-03     192.296E-03     58.6365E+06     26.2393E+06    -8.08041E+06    -41.1759E+06    -29.1708E+06    -20.0855E+06     26.2393E+06    -14.5874E+06
            1936     112.044E-03     13.5217E-03     111.225E-03     153.541E-03    -35.3624E-03    -118.179E-03    -95.0897E-03     130.452E-03    -35.3624E-03     151.438E-03     245.585E-03     61.2579E+06     16.9803E+06    -2.26309E+06    -50.3717E+06    -21.5947E+06    -27.9161E+06     13.8564E+06    -20.3129E+06
            1937     112.285E-03     14.4290E-03     111.354E-03     171.290E-03    -39.3823E-03    -131.907E-03    -106.940E-03     146.323E-03    -39.3823E-03     166.673E-03     322.506E-03     77.2647E+06     48.4460E+06     17.3270E+06    -37.5688E+06    -10.1090E+06     20.2310E+06     18.0822E+06    -23.1394E+06
            1938     112.572E-03     15.3239E-03     111.524E-03     187.505E-03    -43.6111E-03    -143.894E-03    -113.977E-03     157.588E-03    -43.6111E-03     189.805E-03     440.906E-03     92.8282E+06     96.4236E+06     44.2838E+06    -10.2398E+06    -5.27435E+06     91.4582E+06     44.2838E+06    -19.1087E+06
            1939     112.896E-03     16.2143E-03     111.725E-03     183.388E-03    -47.9144E-03    -135.474E-03    -117.587E-03     165.501E-03    -47.9144E-03     129.137E-03     454.332E-03     103.043E+06     104.866E+06     71.6369E+06    -8.59529E+06    -5.47953E+06     93.4211E+06     79.9656E+06    -13.2152E+06
            1940     111.763E-03     991.361E-06     111.759E-03     18.9023E-03    -9.19097E-03    -9.71129E-03    -9.41905E-03     18.6266E-03    -9.20757E-03     5.21083E-03     18.9201E-03     69.1432E+06     41.1091E+06    -25.5145E+06    -30.1919E+06    -27.1128E+06     39.1619E+06    -26.6464E+06     9.42347E+06
            1941     111.774E-03     1.98213E-03     111.756E-03     20.3179E-03    -9.45765E-03    -10.8602E-03    -9.98529E-03     19.4429E-03    -9.45765E-03     9.99194E-03     20.3760E-03     72.0746E+06     27.2500E+06    -37.5324E+06    -49.8581E+06    -40.4028E+06     18.9266E+06    -38.6643E+06     22.3541E+06
            1942     111.796E-03     2.97153E-03     111.757E-03     22.8225E-03    -9.81710E-03    -13.0054E-03    -11.0223E-03     20.8394E-03    -9.81710E-03     16.1286E-03     22.9745E-03     73.3007E+06     3.97328E+06    -54.4614E+06    -77.2413E+06    -59.0556E+06    -14.2124E+06    -54.4614E+06     33.1592E+06
            1943     111.828E-03     3.96047E-03     111.757E-03     26.4917E-03    -10.3381E-03    -16.1535E-03    -12.4452E-03     22.7834E-03    -10.3381E-03     23.8256E-03     26.8345E-03     72.9458E+06    -16.3582E+06    -62.6530E+06    -99.4590E+06    -72.9786E+06    -42.8386E+06    -62.6530E+06     38.4655E+06
            1944     111.874E-03     4.94715E-03     111.764E-03     31.7599E-03    -11.0561E-03    -20.7039E-03    -14.6375E-03     25.6936E-03    -11.0561E-03     33.3991E-03     32.4929E-03     65.8861E+06    -33.0393E+06    -58.2227E+06    -107.043E+06    -78.9723E+06    -61.1100E+06    -58.2227E+06     35.6255E+06
            1945     111.933E-03     5.93111E-03     111.776E-03     38.7546E-03    -11.9874E-03    -26.7672E-03    -17.7413E-03     29.7288E-03    -11.9874E-03     45.0295E-03     40.2052E-03     56.5034E+06    -40.3592E+06    -49.1756E+06    -100.599E+06    -77.5872E+06    -65.8334E+06    -46.7137E+06     28.1000E+06
            1946     112.012E-03     6.91214E-03     111.799E-03     47.5230E-03    -13.1557E-03    -34.3672E-03    -21.8435E-03     34.9993E-03    -13.1557E-03     58.8409E-03     50.2690E-03     50.5608E+06    -32.3729E+06    -47.0780E+06    -87.6859E+06    -72.9382E+06    -61.8257E+06    -32.3729E+06     19.4370E+06
            1947     112.108E-03     7.88843E-03     111.831E-03     58.1138E-03    -14.6099E-03    -43.5038E-03    -27.3908E-03     42.0007E-03    -14.6099E-03     74.1521E-03     62.9776E-03     49.8269E+06    -16.9656E+06    -50.6096E+06    -73.2318E+06    -66.8251E+06    -57.0162E+06    -16.9656E+06     9.97897E+06
            1948     112.229E-03     8.85917E-03     111.878E-03     70.8367E-03    -16.4162E-03    -54.4206E-03    -34.9170E-03     51.3331E-03    -16.4162E-03     90.7440E-03     79.1275E-03     54.7504E+06    -2.05685E+06    -50.1960E+06    -61.3851E+06    -58.6656E+06    -52.9155E+06    -2.05685E+06     741.715E+03
            1949     112.369E-03     9.82181E-03     111.939E-03     86.7266E-03    -18.6488E-03    -68.0778E-03    -44.9497E-03     63.5985E-03    -18.6488E-03     110.256E-03     100.765E-03     60.9177E+06     10.1902E+06    -41.1371E+06    -56.5379E+06    -48.7498E+06    -48.9253E+06     10.1902E+06    -7.26816E+06
            1950     112.541E-03     10.7746E-03     112.024E-03     104.027E-03    -21.3649E-03    -82.6625E-03    -57.1043E-03     78.4693E-03    -21.3649E-03     128.147E-03     126.251E-03     63.8164E+06     17.3325E+06    -28.5007E+06    -55.3014E+06    -40.3441E+06    -43.4580E+06     17.3325E+06    -13.0334E+06
            1951     112.730E-03     11.7169E-03     112.120E-03     121.179E-03    -24.5806E-03    -96.5985E-03    -70.5032E-03     95.0838E-03    -24.5806E-03     141.241E-03     155.681E-03     62.1372E+06     18.9628E+06    -19.1518E+06    -52.5027E+06    -33.7846E+06    -37.8699E+06     18.9628E+06    -16.4915E+06
            1952     112.944E-03     12.6448E-03     112.234E-03     140.128E-03    -28.3022E-03    -111.826E-03    -85.1322E-03     113.434E-03    -28.3022E-03     154.913E-03     194.845E-03     58.2309E+06     25.3706E+06    -3.29961E+06    -41.3581E+06    -26.1833E+06    -18.4744E+06     25.3706E+06    -17.4447E+06
            1953     113.180E-03     13.5614E-03     112.364E-03     162.131E-03    -32.4763E-03    -129.654E-03    -101.739E-03     134.215E-03    -32.4763E-03     171.417E-03     250.851E-03     63.2128E+06     26.7920E+06     7.07946E+06    -43.6553E+06    -20.0816E+06    -8.58164E+06     18.8795E+06    -26.6597E+06
            1954     113.449E-03     14.4591E-03     112.524E-03     181.401E-03    -37.0646E-03    -144.336E-03    -115.853E-03     152.918E-03    -37.0646E-03     183.859E-03     330.089E-03     76.5135E+06     46.5350E+06     15.3312E+06    -39.6256E+06    -13.9177E+06     20.8270E+06     15.3312E+06    -34.4961E+06
            1955     113.736E-03     15.3537E-03     112.695E-03     199.394E-03    -41.9910E-03    -157.403E-03    -125.817E-03     167.808E-03    -41.9910E-03     202.590E-03     443.916E-03     84.3198E+06     83.7663E+06     43.9322E+06    -12.7491E+06    -4.71238E+06     75.7295E+06     43.9322E+06    -21.4864E+06
            1956     114.090E-03     16.2361E-03     112.929E-03     198.230E-03    -47.0806E-03    -151.150E-03    -132.683E-03     179.764E-03    -47.0806E-03     134.677E-03     452.513E-03     93.9138E+06     101.963E+06     70.7225E+06    -3.36625E+06    -1.92110E+06     85.8202E+06     85.4198E+06    -7.29439E+06
            1957     112.775E-03     995.639E-06     112.770E-03     9.66174E-03    -4.62227E-03    -5.03947E-03    -4.81011E-03     9.44898E-03    -4.63887E-03     3.22955E-03     9.70817E-03     101.224E+06     14.7331E+06    -76.0836E+06    -93.5852E+06    -86.8806E+06     8.02848E+06    -76.0836E+06     23.0947E+06
            1958     112.789E-03     1.99078E-03     112.771E-03     11.3583E-03    -4.99378E-03    -6.36452E-03    -5.64255E-03     10.6363E-03    -4.99378E-03     6.83215E-03     11.4762E-03     102.121E+06     5.72127E+06    -76.4015E+06    -108.081E+06    -92.5948E+06    -9.76545E+06    -76.4015E+06     38.2197E+06
            1959     112.811E-03     2.98493E-03     112.772E-03     14.1090E-03    -5.48214E-03    -8.62687E-03    -6.85729E-03     12.3394E-03    -5.48214E-03     12.0164E-03     14.3680E-03     94.9022E+06    -8.91845E+06    -75.4827E+06    -117.230E+06    -92.5098E+06    -33.6390E+06    -75.4827E+06     44.7413E+06
            1960     112.846E-03     3.97697E-03     112.776E-03     18.2523E-03    -6.10546E-03    -12.1469E-03    -8.58570E-03     14.6912E-03    -6.10546E-03     19.4117E-03     18.7746E-03     83.0510E+06    -22.8555E+06    -71.3052E+06    -118.620E+06    -88.0567E+06    -53.4192E+06    -71.3052E+06     44.4877E+06
            1961     112.894E-03     4.96768E-03     112.785E-03     24.1057E-03    -6.90315E-03    -17.2025E-03    -11.0581E-03     17.9613E-03    -6.90315E-03     29.2845E-03     25.0659E-03     71.1585E+06    -31.6467E+06    -62.8399E+06    -112.646E+06    -83.4198E+06    -60.8731E+06    -62.8399E+06     38.7962E+06
            1962     112.960E-03     5.95528E-03     112.803E-03     31.5757E-03    -7.91272E-03    -23.6630E-03    -14.2812E-03     22.1939E-03    -7.91272E-03     41.3944E-03     33.2359E-03     56.3374E+06    -38.7756E+06    -50.7065E+06    -99.6855E+06    -78.7313E+06    -60.0090E+06    -50.4272E+06     28.6388E+06
            1963     113.042E-03     6.93960E-03     112.829E-03     41.0383E-03    -9.15507E-03    -31.8832E-03    -18.5286E-03     27.6837E-03    -9.15507E-03     56.3232E-03     43.9405E-03     45.6552E+06    -33.3942E+06    -44.0747E+06    -82.8032E+06    -71.8476E+06    -53.6378E+06    -34.7867E+06     17.4920E+06
            1964     113.148E-03     7.91944E-03     112.871E-03     52.7775E-03    -10.6900E-03    -42.0876E-03    -24.4685E-03     35.1584E-03    -10.6900E-03     73.6965E-03     57.7010E-03     42.8776E+06    -17.3021E+06    -43.1805E+06    -65.8883E+06    -62.1132E+06    -46.9557E+06    -17.3021E+06     6.71847E+06
            1965     113.275E-03     8.89298E-03     112.925E-03     67.0007E-03    -12.5879E-03    -54.4128E-03    -32.4736E-03     45.0615E-03    -12.5879E-03     93.3222E-03     75.1610E-03     47.3812E+06    -2.06229E+06    -39.1038E+06    -55.1720E+06    -52.0036E+06    -42.2722E+06    -2.06229E+06    -3.27636E+06
            1966     113.432E-03     9.85826E-03     113.003E-03     84.8573E-03    -14.9264E-03    -69.9309E-03    -43.0596E-03     57.9860E-03    -14.9264E-03     117.120E-03     98.4940E-03     55.6477E+06     9.74491E+06    -29.8114E+06    -53.3862E+06    -42.3286E+06    -40.8691E+06     9.74491E+06    -11.2553E+06
            1967     113.617E-03     10.8140E-03     113.101E-03     103.907E-03    -17.7741E-03    -86.1327E-03    -56.0541E-03     73.8282E-03    -17.7741E-03     138.481E-03     125.322E-03     61.2794E+06     18.6809E+06    -18.7106E+06    -51.7836E+06    -33.0377E+06    -37.4565E+06     18.6809E+06    -16.0218E+06
            1968     113.828E-03     11.7563E-03     113.219E-03     123.057E-03    -21.1624E-03    -101.894E-03    -70.7690E-03     91.9314E-03    -21.1624E-03     155.070E-03     156.085E-03     62.1050E+06     22.9854E+06    -8.58990E+06    -48.2669E+06    -24.9712E+06    -31.8857E+06     22.9854E+06    -19.3972E+06
            1969     114.059E-03     12.6865E-03     113.351E-03     145.286E-03    -25.1250E-03    -120.161E-03    -87.7548E-03     112.880E-03    -25.1250E-03     173.545E-03     198.052E-03     60.2250E+06     29.1860E+06     7.40743E+06    -38.5441E+06    -15.9319E+06    -15.2048E+06     29.1860E+06    -22.3953E+06
            1970     114.321E-03     13.5999E-03     113.509E-03     170.148E-03    -29.6456E-03    -140.502E-03    -106.533E-03     136.178E-03    -29.6456E-03     193.711E-03     256.097E-03     59.1223E+06     36.0066E+06     21.9430E+06    -28.5901E+06    -9.93122E+06     9.13742E+06     30.1533E+06    -25.9388E+06
            1971     114.616E-03     14.5002E-03     113.695E-03     192.183E-03    -34.6921E-03    -157.491E-03    -124.283E-03     158.975E-03    -34.6921E-03     204.705E-03     336.934E-03     67.1189E+06     45.3124E+06     21.4786E+06    -29.7029E+06    -12.5643E+06     28.1738E+06     21.4786E+06    -31.1041E+06
            1972     114.920E-03     15.3759E-03     113.887E-03     215.293E-03    -40.2887E-03    -175.005E-03    -140.459E-03     180.748E-03    -40.2887E-03     221.672E-03     451.278E-03     80.4445E+06     63.5376E+06     33.2137E+06    -26.9930E+06    -16.9882E+06     53.5329E+06     33.2137E+06    -25.8105E+06
            1973     115.288E-03     16.2418E-03     114.138E-03     214.475E-03    -46.2370E-03    -168.238E-03    -148.714E-03     194.951E-03    -46.2370E-03     142.690E-03     451.299E-03     94.2524E+06     90.7383E+06     59.4632E+06    -14.8803E+06    -12.3370E+06     69.2633E+06     78.3949E+06    -11.6691E+06
            1974     113.782E-03     998.220E-06     113.778E-03     4.55220E-03    -2.10206E-03    -2.45014E-03    -2.29030E-03     4.39236E-03    -2.10206E-03     1.90546E-03     4.64690E-03     105.393E+06    -28.5414E+06    -121.176E+06    -142.226E+06    -130.238E+06    -40.2698E+06    -121.435E+06     33.4119E+06
            1975     113.795E-03     1.99523E-03     113.778E-03     6.05911E-03    -2.47138E-03    -3.58773E-03    -3.00011E-03     5.47149E-03    -2.47138E-03     4.49539E-03     6.29945E-03     105.595E+06    -20.4436E+06    -103.049E+06    -139.291E+06    -120.471E+06    -39.2636E+06    -103.049E+06     43.1302E+06
            1976     113.820E-03     2.99163E-03     113.781E-03     8.60844E-03    -2.90554E-03    -5.70291E-03    -4.11726E-03     7.02280E-03    -2.90554E-03     8.85352E-03     9.04562E-03     94.4646E+06    -25.9667E+06    -93.5350E+06    -133.666E+06    -109.720E+06    -49.9123E+06    -93.5350E+06     44.2137E+06
            1977     113.856E-03     3.98733E-03     113.787E-03     12.8092E-03    -3.47910E-03    -9.33014E-03    -5.91345E-03     9.39255E-03    -3.47910E-03     15.9087E-03     13.5654E-03     80.6106E+06    -34.2349E+06    -86.4511E+06    -126.865E+06    -100.919E+06    -60.1812E+06    -86.4511E+06     40.9788E+06
            1978     113.909E-03     4.98018E-03     113.800E-03     18.6685E-03    -4.24164E-03    -14.4269E-03    -8.29997E-03     12.5416E-03    -4.24164E-03     25.6388E-03     19.8753E-03     64.7589E+06    -36.4233E+06    -74.0617E+06    -110.597E+06    -88.7511E+06    -58.2690E+06    -74.0617E+06     32.6572E+06
            1979     113.977E-03     5.97099E-03     113.821E-03     26.1968E-03    -5.20807E-03    -20.9887E-03    -11.3533E-03     16.5613E-03    -5.20807E-03     37.9778E-03     28.0747E-03     43.5862E+06    -38.3639E+06    -56.0785E+06    -87.0919E+06    -73.0122E+06    -52.4436E+06    -56.0785E+06     21.4761E+06
            1980     114.066E-03     6.95817E-03     113.854E-03     36.1782E-03    -6.41101E-03    -29.7672E-03    -15.6115E-03     22.0225E-03    -6.41101E-03     54.0897E-03     39.2561E-03     30.9929E+06    -31.1536E+06    -42.1218E+06    -65.4609E+06    -58.7053E+06    -45.1361E+06    -34.8949E+06     11.1762E+06
            1981     114.178E-03     7.94126E-03     113.901E-03     48.5477E-03    -7.89584E-03    -40.6518E-03    -21.4035E-03     29.2993E-03    -7.89584E-03     73.3085E-03     53.5164E-03     31.6203E+06    -15.8830E+06    -36.1175E+06    -51.6668E+06    -49.3549E+06    -38.4294E+06    -15.8830E+06     3.51552E+06
            1982     114.317E-03     8.91791E-03     113.969E-03     63.6955E-03    -9.71686E-03    -53.9787E-03    -29.1893E-03     38.9062E-03    -9.71686E-03     95.8538E-03     71.7004E-03     40.1897E+06    -1.24341E+06    -27.9935E+06    -47.0775E+06    -44.0034E+06    -31.0676E+06    -1.24341E+06    -5.00478E+06
            1983     114.483E-03     9.88767E-03     114.055E-03     83.2576E-03    -11.9803E-03    -71.2773E-03    -40.0590E-03     52.0393E-03    -11.9803E-03     123.938E-03     96.4696E-03     52.3292E+06     9.95538E+06    -19.4793E+06    -50.2605E+06    -38.5867E+06    -31.1531E+06     9.95538E+06    -14.2476E+06
            1984     114.689E-03     10.8458E-03     114.175E-03     103.892E-03    -14.7782E-03    -89.1137E-03    -53.6200E-03     68.3982E-03    -14.7782E-03     149.250E-03     124.553E-03     62.1711E+06     18.7758E+06    -10.3688E+06    -52.3604E+06    -30.6910E+06    -32.0382E+06     18.7758E+06    -20.6823E+06
            1985     114.916E-03     11.7928E-03     114.309E-03     124.877E-03    -18.1685E-03    -106.709E-03    -69.5260E-03     87.6945E-03    -18.1685E-03     169.743E-03     156.583E-03     66.3639E+06     26.1178E+06     1.85984E+06    -48.7273E+06    -21.3083E+06    -25.5592E+06     26.1178E+06    -24.8577E+06
            1986     115.173E-03     12.7246E-03     114.468E-03     149.976E-03    -22.2118E-03    -127.764E-03    -88.6238E-03     110.836E-03    -22.2118E-03     192.994E-03     200.514E-03     67.2601E+06     33.3426E+06     17.3991E+06    -40.1857E+06    -13.5195E+06    -9.26713E+06     33.3426E+06    -28.1043E+06
            1987     115.462E-03     13.6386E-03     114.654E-03     177.585E-03    -26.9216E-03    -150.663E-03    -109.666E-03     136.588E-03    -26.9216E-03     216.715E-03     260.190E-03     63.5911E+06     39.4840E+06     32.7417E+06    -27.1341E+06    -7.02436E+06     14.2363E+06     37.8796E+06    -28.2374E+06
            1988     115.783E-03     14.5321E-03     114.867E-03     203.991E-03    -32.3004E-03    -171.691E-03    -131.474E-03     163.774E-03    -32.3004E-03     231.766E-03     342.535E-03     52.6728E+06     41.7923E+06     31.8595E+06    -14.6209E+06    -3.30964E+06     27.9558E+06     34.3847E+06    -21.3002E+06
            1989     116.123E-03     15.4111E-03     115.096E-03     234.140E-03    -38.4626E-03    -195.677E-03    -154.618E-03     193.080E-03    -38.4626E-03     252.566E-03     461.014E-03     59.3378E+06     57.6304E+06     45.4891E+06    -6.36689E+06    -1.58666E+06     50.0423E+06     48.2971E+06    -15.2431E+06
            1990     116.520E-03     16.2614E-03     115.380E-03     235.315E-03    -45.2286E-03    -190.086E-03    -167.687E-03     212.916E-03    -45.2286E-03     157.937E-03     452.675E-03     84.2845E+06     88.1201E+06     56.1331E+06    -3.54737E+06    -1.33944E+06     57.4554E+06     84.5898E+06    -11.1819E+06
            1991     114.784E-03     998.436E-06     114.779E-03     2.64186E-03    -1.23655E-03    -1.40531E-03    -1.27518E-03     2.55361E-03    -1.27842E-03     1.04423E-03     2.71196E-03     110.268E+06    -77.1648E+06    -179.808E+06    -193.115E+06    -179.963E+06    -83.8435E+06    -186.281E+06     18.9861E+06
            1992     114.800E-03     1.99711E-03     114.782E-03     3.42362E-03    -1.37022E-03    -2.05341E-03    -1.62649E-03     3.00739E-03    -1.38090E-03     2.80022E-03     3.64666E-03     113.049E+06    -51.0828E+06    -149.632E+06    -173.998E+06    -154.181E+06    -61.4948E+06    -159.037E+06     26.4296E+06
            1993     114.824E-03     2.99510E-03     114.785E-03     5.77172E-03    -1.67370E-03    -4.09802E-03    -2.61572E-03     4.28942E-03    -1.67370E-03     6.97244E-03     6.29154E-03     92.4814E+06    -48.0221E+06    -122.305E+06    -150.985E+06    -126.480E+06    -61.0439E+06    -133.788E+06     27.8347E+06
            1994     114.864E-03     3.99116E-03     114.794E-03     9.98241E-03    -2.17451E-03    -7.80790E-03    -4.33723E-03     6.51174E-03    -2.17451E-03     14.0559E-03     10.9081E-03     66.3563E+06    -50.8083E+06    -95.3419E+06    -126.699E+06    -100.506E+06    -63.2565E+06    -109.087E+06     24.4988E+06
            1995     114.918E-03     4.98608E-03     114.809E-03     15.6310E-03    -2.85481E-03    -12.7762E-03    -6.53002E-03     9.38483E-03    -2.85481E-03     23.4957E-03     17.0064E-03     48.7235E+06    -44.9224E+06    -76.8124E+06    -100.666E+06    -80.6169E+06    -54.3455E+06    -87.4388E+06     18.0555E+06
            1996     114.991E-03     5.97850E-03     114.835E-03     22.9512E-03    -3.73132E-03    -19.2199E-03    -9.34327E-03     13.0746E-03    -3.73132E-03     35.6967E-03     24.9525E-03     33.7699E+06    -39.6696E+06    -63.7283E+06    -77.9394E+06    -69.3576E+06    -45.4302E+06    -66.5496E+06     10.6835E+06
            1997     115.083E-03     6.96880E-03     114.872E-03     32.8542E-03    -4.82663E-03    -28.0276E-03    -13.2125E-03     18.0392E-03    -4.82663E-03     52.2122E-03     35.9582E-03     29.3916E+06    -31.4115E+06    -49.0220E+06    -64.5576E+06    -61.6871E+06    -37.9028E+06    -45.4011E+06     3.48475E+06
            1998     115.204E-03     7.95390E-03     114.929E-03     45.1915E-03    -6.16563E-03    -39.0259E-03    -18.3425E-03     24.5081E-03    -6.16563E-03     72.4469E-03     50.0077E-03     31.3108E+06    -18.8065E+06    -34.1009E+06    -53.7115E+06    -50.2877E+06    -31.9029E+06    -24.4283E+06    -3.65862E+06
            1999     115.348E-03     8.93529E-03     115.002E-03     61.0101E-03    -7.81745E-03    -53.1926E-03    -25.7597E-03     33.5772E-03    -7.81745E-03     97.5053E-03     68.6338E-03     37.2428E+06    -1.32387E+03    -18.4780E+06    -42.0344E+06    -35.6166E+06    -22.4688E+06    -2.42834E+06    -9.25346E+06
            2000     115.530E-03     9.90814E-03     115.105E-03     81.5563E-03    -9.89475E-03    -71.6615E-03    -36.3178E-03     46.2125E-03    -9.89475E-03     128.981E-03     94.0413E-03     46.6950E+06     13.9025E+06    -9.87809E+06    -39.8868E+06    -27.9866E+06    -21.7782E+06     13.9025E+06    -13.9162E+06
            2001     115.749E-03     10.8722E-03     115.238E-03     103.373E-03    -12.4906E-03    -90.8821E-03    -49.8738E-03     62.3644E-03    -12.4906E-03     158.292E-03     122.763E-03     60.1836E+06     23.1670E+06    -3.56440E+06    -45.5802E+06    -26.4739E+06    -22.6707E+06     23.1670E+06    -20.7713E+06
            2002     115.999E-03     11.8226E-03     115.395E-03     126.709E-03    -15.7294E-03    -110.980E-03    -67.1955E-03     82.9249E-03    -15.7294E-03     183.947E-03     156.543E-03     70.6855E+06     30.0084E+06     6.93537E+06    -49.1647E+06    -24.6164E+06    -17.6130E+06     30.0084E+06    -27.6384E+06
            2003     116.279E-03     12.7566E-03     115.577E-03     154.152E-03    -19.7053E-03    -134.446E-03    -87.9128E-03     107.618E-03    -19.7053E-03     211.959E-03     201.891E-03     76.5804E+06     36.9044E+06     22.8622E+06    -45.4948E+06    -20.7765E+06    -1.85606E+06     36.9044E+06    -32.4592E+06
            2004     116.599E-03     13.6742E-03     115.794E-03     184.330E-03    -24.4537E-03    -159.876E-03    -111.317E-03     135.771E-03    -24.4537E-03     239.314E-03     262.105E-03     74.3725E+06     40.3020E+06     29.6424E+06    -38.3619E+06    -18.1824E+06     10.0026E+06     39.7623E+06    -31.1510E+06
            2005     116.953E-03     14.5738E-03     116.042E-03     215.725E-03    -30.0694E-03    -185.655E-03    -138.322E-03     168.391E-03    -30.0694E-03     258.385E-03     345.157E-03     67.4849E+06     41.8342E+06     32.3464E+06    -29.2065E+06    -14.7042E+06     18.6047E+06     41.0736E+06    -25.7719E+06
            2006     117.334E-03     15.4413E-03     116.313E-03     250.247E-03    -36.7012E-03    -213.546E-03    -166.957E-03     203.659E-03    -36.7012E-03     278.711E-03     469.061E-03     70.0728E+06     58.5414E+06     52.0726E+06    -14.2535E+06    -6.94377E+06     44.9837E+06     58.3206E+06    -18.6981E+06
            2007     117.773E-03     16.2875E-03     116.641E-03     254.368E-03    -44.2184E-03    -210.149E-03    -185.831E-03     230.050E-03    -44.2184E-03     167.572E-03     455.351E-03     88.6672E+06     89.2767E+06     46.8732E+06    -7.54343E+06    -6.10833E+06     45.4381E+06     89.2767E+06    -7.79641E+06
            2008     115.787E-03     997.707E-06     115.783E-03     3.45192E-03    -1.66537E-03    -1.78655E-03    -1.66957E-03     3.43187E-03    -1.76230E-03     301.153E-06     3.48365E-03     104.897E+06    -96.1941E+06    -195.910E+06    -205.565E+06    -198.299E+06    -97.2463E+06    -202.124E+06    -3.56919E+06
            2009     115.801E-03     1.99583E-03     115.784E-03     3.52356E-03    -1.63829E-03    -1.88527E-03    -1.67156E-03     3.37559E-03    -1.70403E-03     1.21734E-03     3.66469E-03     115.291E+06    -68.5199E+06    -176.054E+06    -190.153E+06    -178.782E+06    -70.4857E+06    -185.460E+06    -2.89806E+06
            2010     115.828E-03     2.99423E-03     115.789E-03     5.06932E-03    -1.83228E-03    -3.23704E-03    -2.34978E-03     4.18206E-03    -1.83228E-03     4.61720E-03     5.51569E-03     101.170E+06    -58.6635E+06    -150.368E+06    -166.395E+06    -151.152E+06    -62.4234E+06    -161.851E+06    -4.29719E+06
            2011     115.868E-03     3.99196E-03     115.799E-03     8.42301E-03    -2.11845E-03    -6.30456E-03    -3.66656E-03     5.78501E-03    -2.11845E-03     11.0724E-03     9.24996E-03     83.6202E+06    -55.9880E+06    -124.862E+06    -146.841E+06    -120.676E+06    -61.6247E+06    -145.390E+06    -7.57304E+06
            2012     115.926E-03     4.98747E-03     115.818E-03     13.4323E-03    -2.57715E-03    -10.8552E-03    -5.50294E-03     8.08009E-03    -2.57715E-03     20.0777E-03     14.6188E-03     75.0034E+06    -45.1110E+06    -99.9623E+06    -129.516E+06    -92.2985E+06    -52.7749E+06    -129.516E+06    -8.00105E+06
            2013     116.000E-03     5.98116E-03     115.846E-03     20.7563E-03    -3.33169E-03    -17.4246E-03    -8.15895E-03     11.4906E-03    -3.33169E-03     32.7214E-03     22.5587E-03     56.0527E+06    -34.8307E+06    -73.7764E+06    -98.7809E+06    -68.1919E+06    -43.4942E+06    -95.7018E+06    -6.31193E+06
            2014     116.098E-03     6.97086E-03     115.889E-03     30.5256E-03    -4.33352E-03    -26.1921E-03    -11.6452E-03     15.9787E-03    -4.33352E-03     49.5298E-03     33.3545E-03     38.5706E+06    -24.7553E+06    -49.6617E+06    -68.0584E+06    -50.8123E+06    -33.7132E+06    -57.9497E+06    -6.17047E+06
            2015     116.221E-03     7.95927E-03     115.948E-03     42.5914E-03    -5.52594E-03    -37.0655E-03    -16.2389E-03     21.7649E-03    -5.52594E-03     70.0053E-03     46.9307E-03     32.4014E+06    -16.6063E+06    -29.8156E+06    -52.1133E+06    -43.0078E+06    -24.3840E+06    -31.1434E+06    -9.91882E+06
            2016     116.376E-03     8.94210E-03     116.032E-03     58.5209E-03    -6.99603E-03    -51.5249E-03    -22.9725E-03     29.9685E-03    -6.99603E-03     96.4611E-03     65.3408E-03     39.4296E+06    -6.72732E+06    -14.6145E+06    -48.8753E+06    -41.8513E+06    -18.3758E+06       -9.99E+06    -13.2245E+06
            2017     116.567E-03     9.91913E-03     116.144E-03     79.0794E-03    -8.83494E-03    -70.2445E-03    -32.4481E-03     41.2831E-03    -8.83494E-03     129.806E-03     90.1057E-03     52.7543E+06     9.65976E+06    -3.52894E+06    -47.2426E+06    -36.8140E+06    -13.9575E+06     9.65976E+06    -17.1819E+06
            2018     116.801E-03     10.8873E-03     116.293E-03     101.947E-03    -11.1609E-03    -90.7860E-03    -45.6820E-03     56.8429E-03    -11.1609E-03     163.019E-03     119.138E-03     63.0270E+06     26.8827E+06     3.88558E+06    -43.7549E+06    -26.4759E+06    -13.3935E+06     26.8827E+06    -22.2491E+06
            2019     117.071E-03     11.8437E-03     116.471E-03     126.968E-03    -14.1309E-03    -112.837E-03    -63.3779E-03     77.5088E-03    -14.1309E-03     193.790E-03     153.562E-03     70.0071E+06     39.0339E+06     12.2230E+06    -40.2890E+06    -18.2294E+06    -9.83656E+06     39.0339E+06    -25.7864E+06
            2020     117.380E-03     12.7835E-03     116.681E-03     156.862E-03    -17.9099E-03    -138.952E-03    -86.0949E-03     104.005E-03    -17.9099E-03     226.333E-03     199.765E-03     76.3093E+06     47.6099E+06     24.2216E+06    -36.7738E+06    -18.1599E+06     5.60779E+06     47.6099E+06    -27.1047E+06
            2021     117.727E-03     13.7036E-03     116.927E-03     190.777E-03    -22.6707E-03    -168.106E-03    -114.324E-03     136.995E-03    -22.6707E-03     255.724E-03     261.675E-03     78.9175E+06     50.9802E+06     27.7850E+06    -36.1051E+06    -17.8430E+06     9.52298E+06     50.9802E+06    -27.8473E+06
            2022     118.120E-03     14.5972E-03     117.214E-03     225.683E-03    -28.5142E-03    -197.169E-03    -145.211E-03     173.725E-03    -28.5142E-03     277.174E-03     343.274E-03     76.6911E+06     53.9808E+06     31.9430E+06    -29.3721E+06    -12.3312E+06     15.1230E+06     53.7599E+06    -26.8785E+06
            2023     118.553E-03     15.4631E-03     117.540E-03     264.945E-03    -35.4096E-03    -229.535E-03    -176.533E-03     211.942E-03    -35.4096E-03     305.689E-03     470.831E-03     70.1670E+06     54.8350E+06     41.1241E+06    -19.1201E+06    -11.3273E+06     33.9701E+06     54.1962E+06    -18.5583E+06
            2024     119.032E-03     16.2921E-03     117.911E-03     272.039E-03    -43.4329E-03    -228.606E-03    -199.952E-03     243.385E-03    -43.4329E-03     192.213E-03     459.855E-03     91.1267E+06     86.9679E+06     35.1877E+06    -11.8797E+06    -6.83563E+06     30.5615E+06     86.5500E+06    -7.76835E+06
            2025     116.791E-03     996.508E-06     116.787E-03     6.46267E-03    -3.12540E-03    -3.33727E-03    -3.21985E-03     6.45401E-03    -3.23416E-03    -486.101E-06     6.51443E-03     74.7938E+06    -80.6183E+06    -150.393E+06    -159.423E+06    -155.456E+06    -82.8270E+06    -152.151E+06    -12.1150E+06
            2026     116.806E-03     1.99317E-03     116.789E-03     6.88731E-03    -3.27632E-03    -3.61099E-03    -3.53631E-03     6.86768E-03    -3.33138E-03    -58.6414E-06     7.07117E-03     88.2285E+06    -59.8114E+06    -140.808E+06    -153.597E+06    -149.542E+06    -63.8667E+06    -140.808E+06    -18.4624E+06
            2027     116.832E-03     2.98906E-03     116.794E-03     7.85007E-03    -3.53004E-03    -4.32003E-03    -4.11623E-03     7.64627E-03    -3.53004E-03     2.01257E-03     8.32277E-03     94.6442E+06    -47.4567E+06    -132.958E+06    -148.551E+06    -142.638E+06    -53.3696E+06    -132.958E+06    -23.0906E+06
            2028     116.873E-03     3.98453E-03     116.806E-03     9.55351E-03    -3.75910E-03    -5.79442E-03    -4.78880E-03     8.54789E-03    -3.75910E-03     6.38205E-03     10.4105E-03     102.876E+06    -39.9996E+06    -127.070E+06    -152.378E+06    -134.596E+06    -50.9985E+06    -133.853E+06    -30.6786E+06
            2029     116.931E-03     4.98005E-03     116.825E-03     12.7447E-03    -4.02618E-03    -8.71856E-03    -5.83270E-03     9.85888E-03    -4.02618E-03     13.7604E-03     13.9394E-03     111.119E+06    -30.5023E+06    -117.534E+06    -155.083E+06    -119.483E+06    -47.1761E+06    -136.461E+06    -37.5067E+06
            2030     117.009E-03     5.97412E-03     116.856E-03     18.6876E-03    -4.50802E-03    -14.1796E-03    -7.80361E-03     12.3116E-03    -4.50802E-03     25.5352E-03     20.2793E-03     99.7778E+06    -23.2245E+06    -99.9723E+06    -135.154E+06    -95.1878E+06    -44.0864E+06    -119.076E+06    -37.3736E+06
            2031     117.110E-03     6.96675E-03     116.903E-03     27.3472E-03    -5.22468E-03    -22.1225E-03    -10.7272E-03     15.9519E-03    -5.22468E-03     41.4642E-03     29.5130E-03     77.9898E+06    -13.3331E+06    -80.1828E+06    -97.4085E+06    -65.9517E+06    -35.3094E+06    -89.6634E+06    -31.2634E+06
            2032     117.238E-03     7.95418E-03     116.968E-03     39.2115E-03    -6.21709E-03    -32.9944E-03    -14.9182E-03     21.1353E-03    -6.21709E-03     62.4980E-03     42.4969E-03     51.9292E+06    -7.00422E+06    -49.6828E+06    -61.9827E+06    -40.7591E+06    -25.7076E+06    -52.2030E+06    -21.5464E+06
            2033     117.398E-03     8.93818E-03     117.057E-03     55.2739E-03    -7.53037E-03    -47.7436E-03    -21.0507E-03     28.5811E-03    -7.53037E-03     90.2582E-03     60.6426E-03     38.1198E+06    -741.897E+03    -11.3219E+06    -41.5952E+06    -25.1585E+06    -17.1842E+06    -11.3163E+06    -14.8436E+06
            2034     117.597E-03     9.91670E-03     117.179E-03     75.6836E-03    -9.14998E-03    -66.5337E-03    -29.8214E-03     38.9713E-03    -9.14998E-03     124.462E-03     84.5358E-03     49.4969E+06     18.1465E+06     5.44841E+06    -34.4355E+06    -20.1699E+06    -6.63460E+06     15.9639E+06    -15.1924E+06
            2035     117.844E-03     10.8887E-03     117.339E-03     98.8238E-03    -11.2136E-03    -87.6102E-03    -41.9363E-03     53.1500E-03    -11.2136E-03     160.296E-03     112.828E-03     63.7514E+06     33.7463E+06     7.78516E+06    -37.3965E+06    -24.0540E+06    -5.55732E+06     33.7463E+06    -18.3852E+06
            2036     118.134E-03     11.8483E-03     117.538E-03     124.672E-03    -13.8688E-03    -110.803E-03    -58.9151E-03     72.7839E-03    -13.8688E-03     195.021E-03     146.419E-03     79.3443E+06     46.1997E+06     15.9701E+06    -43.6841E+06    -26.6500E+06    -1.06395E+06     46.1997E+06    -25.1976E+06
            2037     118.465E-03     12.7942E-03     117.772E-03     157.858E-03    -17.4165E-03    -140.442E-03    -84.3849E-03     101.801E-03    -17.4165E-03     232.672E-03     193.877E-03     85.7826E+06     59.5066E+06     25.1349E+06    -37.9009E+06    -17.4225E+06     4.65642E+06     59.5066E+06    -27.3554E+06
            2038     118.853E-03     13.7146E-03     118.059E-03     196.467E-03    -22.1497E-03    -174.317E-03    -117.169E-03     139.319E-03    -22.1497E-03     267.204E-03     257.725E-03     83.9562E+06     70.2344E+06     31.7366E+06    -25.2716E+06    -6.41456E+06     12.8795E+06     70.2344E+06    -24.0474E+06
            2039     119.286E-03     14.6036E-03     118.389E-03     231.950E-03    -28.0017E-03    -203.948E-03    -146.845E-03     174.847E-03    -28.0017E-03     293.846E-03     333.043E-03     82.8777E+06     71.7514E+06     31.6193E+06    -22.3304E+06    -7.49322E+06     16.7820E+06     71.7514E+06    -22.8349E+06
            2040     119.757E-03     15.4712E-03     118.753E-03     277.839E-03    -34.6750E-03    -243.164E-03    -178.980E-03     213.655E-03    -34.6750E-03     342.090E-03     457.366E-03     63.4872E+06     56.4410E+06     26.9071E+06    -14.9086E+06    -2.68537E+06     15.1018E+06     56.0230E+06    -15.1588E+06
            2041     120.311E-03     16.3163E-03     119.199E-03     292.996E-03    -42.7373E-03    -250.259E-03    -212.505E-03     255.243E-03    -42.7373E-03     237.342E-03     464.223E-03     85.2546E+06     89.2309E+06     28.3255E+06    -4.31465E+06     6.03165E+06     18.3971E+06     88.8130E+06    -1.41671E+06
            2042     117.800E-03     994.826E-06     117.795E-03     11.5345E-03    -5.58858E-03    -5.94590E-03    -5.86809E-03     11.5104E-03    -5.64228E-03    -1.25747E-03     11.5971E-03     48.5037E+06    -58.6558E+06    -101.795E+06    -110.802E+06    -106.183E+06    -61.5174E+06    -103.553E+06    -11.4414E+06
            2043     117.814E-03     1.98835E-03     117.798E-03     12.7886E-03    -5.99909E-03    -6.78955E-03    -6.75851E-03     12.7576E-03    -5.99909E-03    -1.47241E-03     12.9868E-03     62.6992E+06    -42.6249E+06    -95.9966E+06    -111.117E+06    -105.548E+06    -48.1940E+06    -95.9966E+06    -18.4201E+06
            2044     117.842E-03     2.98115E-03     117.805E-03     14.1940E-03    -6.47750E-03    -7.71652E-03    -7.67974E-03     14.1572E-03    -6.47750E-03    -507.906E-06     14.6931E-03     71.6348E+06    -30.3303E+06    -85.5657E+06    -110.837E+06    -101.613E+06    -39.5539E+06    -85.5657E+06    -25.0009E+06
            2045     117.884E-03     3.97282E-03     117.817E-03     15.5231E-03    -6.95103E-03    -8.57211E-03    -8.40779E-03     15.3588E-03    -6.95103E-03     2.05496E-03     16.5269E-03     82.1532E+06    -18.4241E+06    -76.8773E+06    -112.127E+06    -97.3454E+06    -33.2055E+06    -76.8773E+06    -33.4040E+06
            2046     117.941E-03     4.96414E-03     117.837E-03     17.4546E-03    -7.38099E-03    -10.0736E-03    -9.27473E-03     16.6557E-03    -7.38099E-03     6.95056E-03     19.0685E-03     96.8169E+06    -10.8594E+06    -78.9988E+06    -120.841E+06    -100.042E+06    -31.6590E+06    -78.9988E+06    -42.9289E+06
            2047     118.020E-03     5.95506E-03     117.869E-03     20.7266E-03    -7.82223E-03    -12.9044E-03    -10.4047E-03     18.2269E-03    -7.82223E-03     15.3257E-03     22.8143E-03     111.035E+06    -6.99226E+06    -87.3684E+06    -132.127E+06    -104.138E+06    -34.9814E+06    -87.3684E+06    -51.9706E+06
            2048     118.122E-03     6.94392E-03     117.918E-03     26.0882E-03    -8.34192E-03    -17.7463E-03    -11.9722E-03     20.3141E-03    -8.34192E-03     27.9223E-03     28.4436E-03     118.170E+06    -1.29522E+06    -87.2188E+06    -132.253E+06    -98.1004E+06    -34.2552E+06    -88.4112E+06    -56.1032E+06
            2049     118.253E-03     7.93315E-03     117.986E-03     35.2880E-03    -9.06004E-03    -26.2279E-03    -14.8512E-03     23.9112E-03    -9.06004E-03     46.6914E-03     37.9581E-03     101.236E+06    -817.750E+03    -70.0372E+06    -113.716E+06    -78.0608E+06    -35.2810E+06    -71.2296E+06    -49.6133E+06
            2050     118.418E-03     8.91820E-03     118.082E-03     49.5069E-03    -10.0714E-03    -39.4355E-03    -19.8940E-03     29.9654E-03    -10.0714E-03     73.1279E-03     53.1010E-03     74.9312E+06     5.65711E+06    -36.4750E+06    -80.4588E+06    -50.1278E+06    -24.6739E+06    -36.4750E+06    -36.7196E+06
            2051     118.624E-03     9.89748E-03     118.211E-03     69.0236E-03    -11.4570E-03    -57.5666E-03    -27.5750E-03     39.0320E-03    -11.4570E-03     107.462E-03     74.9169E-03     59.0442E+06     21.4942E+06    -8.34661E+06    -45.6358E+06    -26.0918E+06    -11.6513E+06     5.25493E+06    -21.9638E+06
            2052     118.880E-03     10.8677E-03     118.382E-03     92.2505E-03    -13.2721E-03    -78.9784E-03    -38.3545E-03     51.6266E-03    -13.2721E-03     145.621E-03     102.006E-03     60.4034E+06     43.9485E+06     9.18540E+06    -24.3663E+06    -10.9929E+06    -4.18801E+06     43.9485E+06    -12.1754E+06
            2053     119.182E-03     11.8320E-03     118.593E-03     119.989E-03    -15.6549E-03    -104.334E-03    -55.6832E-03     71.3380E-03    -15.6549E-03     184.670E-03     136.090E-03     78.5101E+06     69.7412E+06     23.8735E+06    -17.2271E+06    -6.44059E+06     13.0870E+06     69.7412E+06    -13.6142E+06
            2054     119.540E-03     12.7779E-03     118.855E-03     156.346E-03    -19.0190E-03    -137.327E-03    -83.2541E-03     102.273E-03    -19.0190E-03     227.227E-03     184.574E-03     94.4588E+06     77.7197E+06     25.9208E+06    -27.9715E+06    -13.0426E+06     10.9920E+06     77.7197E+06    -21.2693E+06
            2055     119.965E-03     13.6980E-03     119.181E-03     194.435E-03    -23.5604E-03    -170.874E-03    -113.343E-03     136.904E-03    -23.5604E-03     265.871E-03     242.139E-03     105.355E+06     83.0194E+06     27.7177E+06    -37.8093E+06    -22.4500E+06     12.3584E+06     83.0194E+06    -24.5054E+06
            2056     120.442E-03     14.5948E-03     119.554E-03     226.931E-03    -28.9803E-03    -197.951E-03    -138.031E-03     167.011E-03    -28.9803E-03     295.616E-03     304.374E-03     109.783E+06     93.2968E+06     34.4347E+06    -32.3599E+06    -17.0098E+06     19.0846E+06     93.2968E+06    -26.8235E+06
            2057     120.937E-03     15.4808E-03     119.942E-03     280.428E-03    -34.9999E-03    -245.428E-03    -174.507E-03     209.507E-03    -34.9999E-03     359.232E-03     424.541E-03     81.5454E+06     57.1872E+06     11.8893E+06    -36.1601E+06    -15.1068E+06    -9.16400E+06     57.1872E+06    -21.6517E+06
            2058     121.580E-03     16.3274E-03     120.479E-03     304.358E-03    -42.6598E-03    -261.698E-03    -215.466E-03     258.126E-03    -42.6598E-03     280.445E-03     460.987E-03     95.1979E+06     78.1878E+06     10.8647E+06    -29.9161E+06    -17.4493E+06    -1.60200E+06     78.1878E+06    -6.49290E+06
            2059     118.813E-03     990.774E-06     118.809E-03     19.5246E-03    -9.53641E-03    -9.98818E-03    -9.94436E-03     19.4919E-03    -9.54752E-03    -1.86012E-03     19.5791E-03     26.1616E+06    -38.8979E+06    -58.3496E+06    -67.3815E+06    -61.8444E+06    -43.7719E+06    -59.0126E+06    -8.88436E+06
            2060     118.831E-03     1.98092E-03     118.814E-03     21.2961E-03    -10.0740E-03    -11.2222E-03    -11.1519E-03     21.2259E-03    -10.0740E-03    -2.99083E-03     21.4482E-03     40.1016E+06     -23.124E+06    -51.9272E+06    -67.6881E+06    -59.7908E+06    -31.0213E+06    -51.9272E+06    -16.1462E+06
            2061     118.860E-03     2.96892E-03     118.823E-03     23.3508E-03    -10.7290E-03    -12.6217E-03    -12.5301E-03     23.2591E-03    -10.7290E-03    -3.51458E-03     23.7406E-03     50.5068E+06    -11.9138E+06    -44.8989E+06    -69.9046E+06    -57.6783E+06    -24.1401E+06    -44.8989E+06    -23.0109E+06
            2062     118.902E-03     3.95636E-03     118.836E-03     25.6941E-03    -11.4771E-03    -14.2170E-03    -14.1290E-03     25.6060E-03    -11.4771E-03    -2.88774E-03     26.5356E-03     60.8788E+06    -3.35338E+06    -36.8735E+06    -72.8813E+06    -58.0006E+06    -18.2341E+06    -36.8735E+06    -28.0208E+06
            2063     118.961E-03     4.94154E-03     118.858E-03     28.1465E-03    -12.3049E-03    -15.8416E-03    -15.7297E-03     28.0347E-03    -12.3049E-03    -468.545E-06     29.6994E-03     70.7815E+06     3.08498E+06    -27.9357E+06    -76.5875E+06    -57.9283E+06    -15.5742E+06    -27.9357E+06    -32.9927E+06
            2064     119.040E-03     5.92427E-03     118.892E-03     30.4011E-03    -13.1175E-03    -17.2836E-03    -16.8692E-03     29.9868E-03    -13.1175E-03     4.55018E-03     32.7722E-03     83.7346E+06     7.82249E+06    -26.0882E+06    -85.9284E+06    -61.4115E+06    -16.6944E+06    -26.0882E+06    -40.9718E+06
            2065     119.141E-03     6.90772E-03     118.941E-03     33.4203E-03    -13.8889E-03    -19.5313E-03    -18.0622E-03     31.9512E-03    -13.8889E-03     12.9512E-03     36.5316E-03     99.6486E+06     8.91400E+06    -32.9903E+06    -103.656E+06    -72.8105E+06    -21.9313E+06    -32.9903E+06    -50.0706E+06
            2066     119.271E-03     7.88847E-03     119.010E-03     38.6502E-03    -14.7059E-03    -23.9443E-03    -20.0004E-03     34.7064E-03    -14.7059E-03     25.8013E-03     42.2508E-03     110.588E+06     4.00856E+06    -42.3255E+06    -121.029E+06    -84.9556E+06    -32.0647E+06    -42.3255E+06    -56.4951E+06
            2067     119.437E-03     8.86807E-03     119.107E-03     47.3648E-03    -15.6767E-03    -31.6881E-03    -22.9064E-03     38.5831E-03    -15.6767E-03     45.6636E-03     51.1192E-03     112.623E+06     3.67426E+06    -40.0103E+06    -122.548E+06    -86.7331E+06    -32.1408E+06    -40.0103E+06    -56.3092E+06
            2068     119.647E-03     9.84448E-03     119.242E-03     60.8907E-03    -16.9068E-03    -43.9839E-03    -27.3500E-03     44.2568E-03    -16.9068E-03     73.8426E-03     64.9895E-03     101.279E+06     9.83018E+06    -20.4428E+06    -102.145E+06    -71.0224E+06    -26.3662E+06    -15.3690E+06    -47.8899E+06
            2069     119.907E-03     10.8189E-03     119.418E-03     79.9772E-03    -18.4807E-03    -61.4964E-03    -35.2240E-03     53.7047E-03    -18.4807E-03     108.456E-03     85.5574E-03     92.4035E+06     28.8546E+06     3.20157E+06    -70.8862E+06    -44.8630E+06    -17.4378E+06     23.4707E+06    -34.2573E+06
            2070     120.222E-03     11.7805E-03     119.644E-03     108.163E-03    -20.6925E-03    -87.4707E-03    -51.5144E-03     72.2069E-03    -20.6925E-03     150.787E-03     118.007E-03     98.2994E+06     72.0433E+06     21.2592E+06    -35.3641E+06    -21.5528E+06     7.44788E+06     72.0433E+06    -19.5580E+06
            2071     120.604E-03     12.7229E-03     119.931E-03     146.261E-03    -23.8696E-03    -122.392E-03    -77.3961E-03     101.266E-03    -23.8696E-03     200.317E-03     164.687E-03     110.139E+06     104.685E+06     24.8398E+06    -18.6934E+06    -11.5564E+06     17.7028E+06     104.685E+06    -6.12920E+06
            2072     121.060E-03     13.6398E-03     120.289E-03     180.384E-03    -27.9439E-03    -152.440E-03    -101.268E-03     129.212E-03    -27.9439E-03     240.004E-03     211.535E-03     121.651E+06     120.175E+06     36.2528E+06    -16.3402E+06    -7.07732E+06     26.9899E+06     120.175E+06    -8.54181E+06
            2073     121.550E-03     14.5519E-03     120.676E-03     210.175E-03    -32.6038E-03    -177.571E-03    -123.355E-03     155.959E-03    -32.6038E-03     268.721E-03     262.403E-03     117.358E+06     113.092E+06     35.8682E+06    -19.8197E+06    -10.1574E+06     26.2060E+06     113.092E+06    -17.0665E+06
            2074     122.092E-03     15.4395E-03     121.112E-03     267.456E-03    -37.9524E-03    -229.504E-03    -162.475E-03     200.427E-03    -37.9524E-03     339.458E-03     369.685E-03     98.0334E+06     73.4150E+06     7.24082E+06    -38.6546E+06    -17.0820E+06    -14.3318E+06     73.4150E+06    -15.8393E+06
            2075     122.790E-03     16.2944E-03     121.704E-03     288.824E-03    -44.3926E-03    -244.432E-03    -190.376E-03     234.769E-03    -44.3926E-03     309.894E-03     422.991E-03     93.5568E+06     66.6767E+06     4.32571E+06    -39.4125E+06    -20.8406E+06    -14.2462E+06     66.6767E+06    -14.2310E+06
            2076     119.838E-03     985.841E-06     119.834E-03     30.9388E-03    -15.1998E-03    -15.7390E-03    -15.4927E-03     30.9018E-03    -15.4091E-03    -2.43074E-03     30.9823E-03     29.1503E+06    -3.38176E+06    -12.0573E+06    -35.1289E+06    -11.3281E+06    -26.9596E+06    -12.2802E+06    -9.17774E+06
            2077     119.857E-03     1.96952E-03     119.840E-03     32.8252E-03    -15.7768E-03    -17.0484E-03    -16.9515E-03     32.7283E-03    -15.7768E-03    -4.32794E-03     32.9224E-03     31.9912E+06     4.50725E+06    -9.47774E+06    -31.5947E+06    -10.6506E+06    -16.4368E+06    -9.47774E+06    -14.3924E+06
            2078     119.888E-03     2.95278E-03     119.851E-03     35.9601E-03    -16.5913E-03    -19.3688E-03    -19.1966E-03     35.7879E-03    -16.5913E-03    -6.13200E-03     36.2307E-03     36.8323E+06     8.56944E+06    -5.39415E+06    -32.0343E+06    -12.6146E+06    -10.9867E+06    -5.25766E+06    -18.1602E+06
            2079     119.933E-03     3.93228E-03     119.868E-03     39.7058E-03    -17.7011E-03    -22.0047E-03    -21.7754E-03     39.4765E-03    -17.7011E-03    -7.48722E-03     40.2999E-03     45.0503E+06     15.5115E+06     3.61711E+06    -33.7131E+06    -13.2036E+06    -7.50879E+06     6.12796E+06    -21.4797E+06
            2080     119.994E-03     4.90901E-03     119.894E-03     43.2817E-03    -18.9392E-03    -24.3425E-03    -24.1238E-03     43.0630E-03    -18.9392E-03    -7.43833E-03     44.3648E-03     52.2729E+06     21.9268E+06     8.83767E+06    -35.4627E+06    -14.6036E+06    -6.05912E+06     15.9645E+06    -23.9560E+06
            2081     120.073E-03     5.88451E-03     119.929E-03     47.1239E-03    -20.2381E-03    -26.8857E-03    -26.7078E-03     46.9459E-03    -20.2381E-03    -5.91029E-03     48.9464E-03     57.9278E+06     25.3563E+06     7.99257E+06    -38.4054E+06    -20.3835E+06    -4.69186E+06     20.0188E+06    -24.2057E+06
            2082     120.175E-03     6.85605E-03     119.979E-03     51.4199E-03    -21.6403E-03    -29.7796E-03    -29.5425E-03     51.1829E-03    -21.6403E-03    -2.92176E-03     54.2941E-03     68.3266E+06     28.4362E+06     1.16231E+06    -48.0113E+06    -30.3105E+06    -6.97345E+06     18.8712E+06    -26.3325E+06
            2083     120.306E-03     7.82493E-03     120.051E-03     56.0076E-03    -23.1711E-03    -32.8365E-03    -32.2677E-03     55.4388E-03    -23.1711E-03     2.74470E-03     60.1563E-03     83.3257E+06     27.9128E+06    -3.68661E+06    -65.5738E+06    -41.6438E+06    -15.4110E+06     15.7072E+06    -34.0122E+06
            2084     120.469E-03     8.78950E-03     120.148E-03     61.1364E-03    -24.8018E-03    -36.3345E-03    -34.6295E-03     59.4313E-03    -24.8018E-03     12.3899E-03     66.3376E-03     96.5745E+06     22.8438E+06    -3.07817E+06    -83.6211E+06    -52.2002E+06    -23.2079E+06     11.5526E+06    -43.4654E+06
            2085     120.676E-03     9.75227E-03     120.281E-03     67.1521E-03    -26.5125E-03    -40.6396E-03    -36.4878E-03     63.0003E-03    -26.5125E-03     27.0203E-03     72.8136E-03     106.226E+06     19.0421E+06    -4.30272E+06    -96.8462E+06    -62.7632E+06    -27.2431E+06     7.89955E+06    -48.6569E+06
            2086     120.932E-03     10.7097E-03     120.457E-03     76.8214E-03    -28.4252E-03    -48.3962E-03    -40.1288E-03     68.5540E-03    -28.4252E-03     48.4470E-03     82.9273E-03     112.303E+06     21.0644E+06     712.412E+03    -99.8071E+06    -67.4620E+06    -26.2488E+06     15.6805E+06    -48.3625E+06
            2087     121.249E-03     11.6647E-03     120.687E-03     95.4989E-03    -30.9070E-03    -64.5919E-03    -50.0518E-03     80.9588E-03    -30.9070E-03     80.6349E-03     103.196E-03     122.671E+06     50.9372E+06     14.4828E+06    -84.2073E+06    -57.9714E+06    -11.7530E+06     50.9372E+06    -41.9282E+06
            2088     121.649E-03     12.6046E-03     120.994E-03     119.461E-03    -34.0727E-03    -85.3886E-03    -62.9449E-03     97.0176E-03    -34.0727E-03     120.548E-03     130.372E-03     132.025E+06     92.2488E+06     21.6820E+06    -56.8362E+06    -30.3968E+06    -4.75749E+06     92.2488E+06    -26.6203E+06
            2089     122.121E-03     13.5333E-03     121.369E-03     141.320E-03    -37.6338E-03    -103.686E-03    -74.6853E-03     112.319E-03    -37.6338E-03     154.842E-03     157.928E-03     126.004E+06     119.998E+06     33.8468E+06    -21.5848E+06    -5.74059E+06     18.0026E+06     119.998E+06    -6.65790E+06
            2090     122.627E-03     14.4420E-03     121.774E-03     169.600E-03    -41.6798E-03    -127.920E-03    -94.9714E-03     136.651E-03    -41.6798E-03     184.421E-03     200.169E-03     121.503E+06     132.824E+06     46.5940E+06    -5.24420E+06     467.983E+03     40.8819E+06     132.824E+06     6.63192E+06
            2091     123.199E-03     15.3307E-03     122.241E-03     217.494E-03    -46.4181E-03    -171.075E-03    -124.204E-03     170.622E-03    -46.4181E-03     251.309E-03     281.974E-03     120.842E+06     123.678E+06     37.1057E+06    -14.2714E+06     7.31076E+06     15.5235E+06     123.678E+06    -2.97052E+06
            2092     123.918E-03     16.2036E-03     122.854E-03     220.786E-03    -50.6447E-03    -170.142E-03    -117.109E-03     167.754E-03    -50.6447E-03     263.566E-03     309.756E-03     87.2860E+06     67.7193E+06     13.7570E+06    -31.0836E+06    -3.79936E+06    -13.5272E+06     67.7193E+06    -7.07782E+06
            2093     120.875E-03     977.594E-06     120.871E-03     45.6495E-03    -22.4059E-03    -23.2436E-03    -23.0084E-03     45.6124E-03    -22.6041E-03    -3.02156E-03     45.6796E-03     60.5696E+06     51.7042E+06     45.7560E+06    -11.2045E+06     48.7027E+06    -9.45511E+06     47.0081E+06    -8.48206E+06
            2094     120.896E-03     1.95624E-03     120.880E-03     47.7625E-03    -23.1584E-03    -24.6041E-03    -24.5119E-03     47.6703E-03    -23.1584E-03    -5.01497E-03     47.8189E-03     53.4377E+06     46.7724E+06     39.0033E+06    -9.73285E+06     42.0348E+06    -6.24579E+06     40.2539E+06    -10.6396E+06
            2095     120.930E-03     2.93053E-03     120.895E-03     51.6956E-03    -24.1457E-03    -27.5499E-03    -27.3793E-03     51.5250E-03    -24.1457E-03    -7.21454E-03     51.8469E-03     50.0341E+06     43.8836E+06     38.4198E+06    -8.56206E+06     34.8672E+06    -3.18703E+06     42.0612E+06    -11.7832E+06
            2096     120.980E-03     3.90154E-03     120.917E-03     56.6692E-03    -25.5228E-03    -31.1464E-03    -30.8874E-03     56.4102E-03    -25.5228E-03    -9.38763E-03     57.0210E-03     50.2361E+06     44.8787E+06     36.0163E+06    -8.99921E+06     28.9824E+06    -1.96526E+06     44.8787E+06    -11.9734E+06
            2097     121.043E-03     4.86982E-03     120.945E-03     62.9650E-03    -27.2471E-03    -35.7179E-03    -35.3551E-03     62.6022E-03    -27.2471E-03    -11.8757E-03     63.6780E-03     51.9390E+06      50.047E+06     30.1478E+06    -8.46903E+06     21.8621E+06    -183.301E+03      50.047E+06    -11.0768E+06
            2098     121.127E-03     5.83272E-03     120.986E-03     70.4806E-03    -29.3511E-03    -41.1295E-03    -40.6281E-03     69.9792E-03    -29.3511E-03    -14.8333E-03     71.7936E-03     59.6493E+06     58.8391E+06     25.5391E+06    -9.82026E+06     17.2697E+06    -1.55087E+06     58.8391E+06    -9.63612E+06
            2099     121.233E-03     6.78897E-03     121.043E-03     78.6760E-03    -31.8046E-03    -46.8714E-03    -46.1951E-03     77.9996E-03    -31.8046E-03    -18.0349E-03     80.9375E-03     68.7342E+06     70.6020E+06     24.6540E+06    -8.17112E+06     16.5514E+06    -68.5620E+03     70.6020E+06    -9.09059E+06
            2100     121.365E-03     7.73873E-03     121.118E-03     87.0995E-03    -34.5375E-03    -52.5620E-03    -51.6256E-03     86.1631E-03    -34.5375E-03    -21.3945E-03     90.7213E-03     78.4980E+06     75.3914E+06     24.6969E+06    -14.4141E+06     12.8689E+06    -2.58613E+06     75.3914E+06    -10.6457E+06
            2101     121.530E-03     8.68240E-03     121.219E-03     95.0247E-03    -37.4986E-03    -57.5260E-03    -56.1849E-03     93.6835E-03    -37.4986E-03    -24.8365E-03     100.441E-03     87.7461E+06     71.2903E+06     23.5328E+06    -28.2072E+06     3.36923E+06    -8.04355E+06     71.2903E+06    -14.6570E+06
            2102     121.731E-03     9.61755E-03     121.351E-03     102.508E-03    -40.7049E-03    -61.8033E-03    -59.6666E-03     100.371E-03    -40.7049E-03    -28.3763E-03     110.069E-03     95.3349E+06     67.4703E+06     19.6364E+06    -39.6625E+06    -6.26534E+06    -13.7608E+06     67.4703E+06    -19.6262E+06
            2103     121.979E-03     10.5494E-03     121.522E-03     110.493E-03    -44.2532E-03    -66.2397E-03    -62.5177E-03     106.771E-03    -44.2532E-03    -31.1921E-03     120.414E-03     102.326E+06     68.3530E+06     17.0651E+06    -45.8566E+06    -12.5511E+06    -16.2404E+06     68.3530E+06    -25.5464E+06
            2104     122.287E-03     11.4669E-03     121.748E-03     116.671E-03    -48.2005E-03    -68.4704E-03    -62.9004E-03     111.101E-03    -48.2005E-03    -25.5454E-03     128.772E-03     111.421E+06     76.7809E+06     17.1823E+06    -46.5247E+06    -17.7764E+06    -11.5661E+06     76.7809E+06    -29.6226E+06
            2105     122.672E-03     12.3693E-03     122.047E-03     115.921E-03    -50.0894E-03    -65.8314E-03    -56.4796E-03     108.707E-03    -52.2271E-03    -9.10032E-03     130.192E-03     122.466E+06     85.2821E+06     11.4089E+06    -50.8185E+06    -23.4678E+06    -15.9418E+06     85.2821E+06    -29.9363E+06
            2106     123.113E-03     13.2765E-03     122.395E-03     115.256E-03    -47.3738E-03    -67.8819E-03    -49.8164E-03     105.846E-03    -56.0293E-03     11.5906E-03     133.187E-03     122.341E+06     89.3258E+06     10.9257E+06    -49.2749E+06    -26.2919E+06    -12.0572E+06     89.3258E+06    -20.2127E+06
            2107     123.634E-03     14.1868E-03     122.817E-03     126.901E-03    -45.1529E-03    -81.7481E-03    -55.0816E-03     115.323E-03    -60.2413E-03     29.9783E-03     154.429E-03     129.164E+06     121.527E+06     36.5357E+06    -27.0556E+06    -8.66641E+06     18.1466E+06     121.527E+06    -5.15371E+06
            2108     124.217E-03     15.0620E-03     123.301E-03     131.563E-03    -30.9157E-03    -100.648E-03    -48.9237E-03     113.271E-03    -64.3476E-03     81.4719E-03     174.331E-03     124.380E+06     129.339E+06     52.3721E+06    -12.3373E+06     3.67124E+06     36.3636E+06     129.339E+06    -349.548E+03
            2109     124.874E-03     15.9458E-03     123.852E-03     108.223E-03    -13.0547E-03    -95.1685E-03    -16.0210E-03     82.3778E-03    -66.3568E-03     110.487E-03     155.265E-03     88.9249E+06     67.8548E+06     17.3633E+06    -31.8306E+06     6.47789E+06     1.92668E+06     44.9830E+06     8.06918E+06


