********************************************************************************
Field Output Report, written Thu Apr 10 15:49:14 2025

Source 1
---------

   ODB: F:/Abaqus_calc/Vel_40/odb/Correct/aisi_1020_2a_16_red_1500_cal_10_vel_40_fric_025.odb
   Step: Step-1
   Frame: Increment   2370696: Step Time =   0.3095

Loc 1 : Nodal values from source 1

Output sorted by column "Nodal Label".

Field Output reported at nodes for region: DIE_2A_16_D0_36-1.Region_1
   Computation algorithm: EXTRAPOLATE_COMPUTE_AVERAGE
   Averaged at nodes
   Averaging regions: ODB_REGIONS

      Node Label  COORD.Magnitude     COORD.COOR1     COORD.COOR2
                          @Loc 1          @Loc 1          @Loc 1
------------------------------------------------------------------
               1     159.981E-03     17.4293E-03     159.028E-03


Field Output reported at nodes for region: DIE_2A_16_D0_36-1.Region_2
   Computation algorithm: EXTRAPOLATE_COMPUTE_AVERAGE
   Averaged at nodes
   Averaging regions: ODB_REGIONS

      Node Label  COORD.Magnitude     COORD.COOR1     COORD.COOR2
                          @Loc 1          @Loc 1          @Loc 1
------------------------------------------------------------------
               1     159.981E-03     17.4293E-03     159.028E-03


Field Output reported at nodes for part: WIRE_1-1
   Computation algorithm: EXTRAPOLATE_COMPUTE_AVERAGE
   Averaged at nodes
   Averaging regions: ODB_REGIONS

      Node Label  COORD.Magnitude     COORD.COOR1     COORD.COOR2    PE.Max. Prin    PE.Mid. Prin    PE.Min. Prin         PE.PE11         PE.PE22         PE.PE33         PE.PE12            PEEQ         S.Mises     S.Max. Prin     S.Mid. Prin     S.Min. Prin           S.S11           S.S22           S.S33           S.S12
                          @Loc 1          @Loc 1          @Loc 1          @Loc 1          @Loc 1          @Loc 1          @Loc 1          @Loc 1          @Loc 1          @Loc 1          @Loc 1          @Loc 1          @Loc 1          @Loc 1          @Loc 1          @Loc 1          @Loc 1          @Loc 1          @Loc 1
----------------------------------------------------------------------------------------------------------------------------------------------------------------------------------------------------------------------------------------------------------------------------------------------------------------------------------
               1     78.3860E-03     15.2782E-03     76.8827E-03     329.170E-03    -164.148E-03    -165.022E-03    -162.748E-03     327.770E-03    -165.022E-03     52.4771E-03     385.125E-03     142.475E+06     141.199E+06     135.225E+06    -4.16893E+06    -4.16811E+06     135.224E+06     141.199E+06    -169.743E+03
               2     76.0656E-03    -255.038E-09     76.0656E-03     329.830E-03    -164.419E-03    -165.411E-03    -165.410E-03     329.829E-03    -164.419E-03     1.53047E-03     330.044E-03     183.599E+06    -184.872E+06    -187.931E+06    -369.980E+06    -186.107E+06    -369.972E+06    -186.703E+06     480.578E+03
               3     491.920E-09    -491.920E-09    -27.7556E-18     480.470E-03    -239.187E-03    -241.283E-03    -239.183E-03     480.466E-03    -241.283E-03     3.27779E-03     481.438E-03     175.750E+06    -94.4671E+06    -96.9444E+06    -271.442E+06    -94.5508E+06    -271.359E+06    -96.9444E+06     3.84602E+06
               4     15.1568E-03     15.1568E-03    -27.7556E-18     392.717E-03    -170.189E-03    -222.528E-03    -215.659E-03     385.848E-03    -170.189E-03     129.293E-03     430.546E-03     143.825E+06     163.136E+06     145.183E+06     11.1767E+06     11.2430E+06     145.116E+06     163.136E+06    -2.97963E+06
               5     154.539E-03     15.3103E-03     153.778E-03     271.337E-03    -107.269E-03    -164.067E-03    -107.167E-03     271.235E-03    -164.067E-03    -12.4238E-03     321.014E-03     87.8525E+06     70.4009E+06     36.3205E+06    -29.3856E+06    -26.2895E+06     33.2245E+06     70.4009E+06    -13.9229E+06
               6     151.208E-03     4.97841E-06     151.208E-03     390.421E-03    -194.415E-03    -196.006E-03    -195.725E-03     390.140E-03    -194.415E-03    -25.6480E-03     395.457E-03     94.3022E+06     78.2393E+06     74.7658E+06    -17.7517E+06     73.4401E+06    -16.4259E+06     78.2393E+06    -10.9955E+06
               7     78.1603E-03     14.4278E-03     76.8171E-03     330.793E-03    -164.575E-03    -166.219E-03    -163.114E-03     328.125E-03    -165.011E-03     70.4192E-03     399.879E-03     139.089E+06     132.138E+06     128.781E+06    -8.58101E+06    -8.58019E+06     128.780E+06     132.138E+06     80.0782E+03
               8     77.8956E-03     13.5788E-03     76.7030E-03     331.164E-03    -164.977E-03    -166.187E-03    -163.296E-03     328.275E-03    -164.979E-03     74.3072E-03     400.261E-03     131.196E+06     115.729E+06     112.559E+06    -17.0041E+06    -17.0035E+06     115.359E+06     112.928E+06     61.9675E+03
               9     77.6751E-03     12.7294E-03     76.6250E-03     330.050E-03    -164.952E-03    -165.099E-03    -163.204E-03     328.157E-03    -164.954E-03     61.1085E-03     383.791E-03     125.856E+06     104.537E+06     97.2346E+06    -24.8011E+06    -24.7962E+06     104.532E+06     97.2346E+06    -644.692E+03
              10     77.4632E-03     11.8797E-03     76.5468E-03     329.928E-03    -164.842E-03    -165.086E-03    -163.252E-03     328.193E-03    -164.941E-03     58.3891E-03     377.017E-03     124.725E+06     97.8984E+06     84.7320E+06    -32.8315E+06    -32.8263E+06     97.8932E+06     84.7320E+06    -603.207E+03
              11     77.2689E-03     11.0301E-03     76.4775E-03     329.755E-03    -164.778E-03    -164.977E-03    -163.350E-03     328.327E-03    -164.977E-03     53.0438E-03     369.396E-03     127.918E+06     90.6650E+06     80.2200E+06    -42.0003E+06    -41.9995E+06     90.6642E+06     80.2200E+06     64.8492E+03
              12     77.0899E-03     10.1824E-03     76.4145E-03     329.882E-03    -164.831E-03    -165.051E-03    -163.614E-03     328.643E-03    -165.029E-03     49.4123E-03     363.891E-03     121.286E+06     75.5406E+06     60.1466E+06    -52.1571E+06    -52.1564E+06     61.9265E+06     73.7600E+06     240.919E+03
              13     76.9240E-03     9.33339E-03     76.3557E-03     329.726E-03    -164.643E-03    -165.083E-03    -163.588E-03     328.649E-03    -165.062E-03     46.0655E-03     359.078E-03     105.950E+06     56.0267E+06     8.70972E+06    -62.9968E+06    -62.9878E+06     8.70076E+06     56.0267E+06     569.594E+03
              14     76.7705E-03     8.48363E-03     76.3003E-03     329.491E-03    -164.382E-03    -165.110E-03    -163.460E-03     328.569E-03    -165.110E-03     42.5828E-03     355.075E-03     101.086E+06     38.4818E+06    -40.7738E+06    -74.0608E+06    -74.0498E+06    -40.7848E+06     38.4818E+06     424.739E+03
              15     76.6342E-03     7.63517E-03     76.2529E-03     329.536E-03    -164.381E-03    -165.155E-03    -163.617E-03     328.772E-03    -165.155E-03     38.7727E-03     351.785E-03     104.977E+06     20.6033E+06    -76.6080E+06    -90.5691E+06    -85.7008E+06    -81.4763E+06     20.6033E+06     65.9962E+03
              16     76.5089E-03     6.78642E-03     76.2073E-03     329.665E-03    -164.483E-03    -165.182E-03    -163.874E-03     329.056E-03    -165.182E-03     34.6044E-03     348.751E-03     111.496E+06     2.11737E+06    -97.9635E+06    -117.576E+06    -97.9712E+06    -117.568E+06     2.11737E+06     147.703E+03
              17     76.3998E-03     5.93762E-03     76.1687E-03     329.659E-03    -164.474E-03    -165.185E-03    -164.025E-03     329.210E-03    -165.185E-03     29.6635E-03     345.578E-03     119.293E+06    -18.8319E+06    -110.943E+06    -153.028E+06    -110.948E+06    -153.024E+06    -18.8319E+06     179.742E+03
              18     76.3065E-03     5.09012E-03     76.1365E-03     329.562E-03    -164.380E-03    -165.181E-03    -164.069E-03     329.250E-03    -165.181E-03     24.6837E-03     342.212E-03     128.260E+06    -42.7365E+06    -124.309E+06    -190.212E+06    -124.312E+06    -190.209E+06    -42.7365E+06     236.513E+03
              19     76.2281E-03     4.24034E-03     76.1101E-03     329.605E-03    -164.434E-03    -165.171E-03    -164.241E-03     329.412E-03    -165.171E-03     19.2958E-03     339.095E-03     137.348E+06    -69.3166E+06    -138.001E+06    -227.115E+06    -138.002E+06    -227.114E+06    -69.3166E+06    -57.7544E+03
              20     76.1680E-03     3.39268E-03     76.0924E-03     329.777E-03    -164.650E-03    -165.127E-03    -164.549E-03     329.676E-03    -165.127E-03     13.9761E-03     336.248E-03     144.919E+06    -98.4707E+06    -151.791E+06    -262.235E+06    -151.791E+06    -262.235E+06    -98.4707E+06    -176.821E+03
              21     76.1211E-03     2.54499E-03     76.0786E-03     329.885E-03    -164.741E-03    -165.144E-03    -164.800E-03     329.835E-03    -165.035E-03     9.76698E-03     333.706E-03     155.440E+06    -128.681E+06    -164.701E+06    -298.664E+06    -164.701E+06    -298.663E+06    -128.681E+06     75.3866E+03
              22     76.0896E-03     1.69662E-03     76.0707E-03     329.735E-03    -164.692E-03    -165.043E-03    -164.779E-03     329.713E-03    -164.934E-03     6.42886E-03     331.575E-03     166.763E+06    -156.664E+06    -175.322E+06    -331.797E+06    -175.330E+06    -331.789E+06    -156.664E+06     464.278E+03
              23     76.0716E-03     847.314E-06     76.0669E-03     329.695E-03    -164.544E-03    -165.151E-03    -165.033E-03     329.688E-03    -164.654E-03     3.25220E-03     330.306E-03     176.896E+06    -177.082E+06    -183.768E+06    -357.193E+06    -182.863E+06    -357.182E+06    -177.998E+06     618.309E+03
              24     74.6747E-03     1.41547E-06     74.6747E-03     329.773E-03    -164.460E-03    -165.313E-03    -165.131E-03     329.772E-03    -164.641E-03     1.36962E-03     329.974E-03     184.322E+06    -181.761E+06    -183.372E+06    -366.882E+06    -182.996E+06    -366.875E+06    -182.144E+06     905.760E+03
              25     73.2889E-03    -1.72398E-06     73.2889E-03     329.249E-03    -164.480E-03    -164.769E-03    -164.479E-03     329.248E-03    -164.769E-03     1.14233E-03     329.434E-03     182.985E+06    -183.637E+06    -184.179E+06    -366.892E+06    -183.647E+06    -366.882E+06    -184.179E+06    -877.111E+03
              26     71.8976E-03     1.54432E-06     71.8976E-03     329.508E-03    -164.122E-03    -165.386E-03    -165.277E-03     329.507E-03    -164.230E-03     960.594E-06     329.697E-03     183.711E+06    -184.337E+06    -185.633E+06    -368.691E+06    -184.366E+06    -368.662E+06    -185.633E+06     343.236E+03
              27     70.5106E-03     407.421E-09     70.5106E-03     330.252E-03    -164.220E-03    -166.032E-03    -165.373E-03     330.249E-03    -164.876E-03     2.54341E-03     330.441E-03     183.744E+06    -182.101E+06    -185.324E+06    -367.433E+06    -184.222E+06    -367.399E+06    -183.238E+06     141.154E+03
              28     69.1174E-03    -1.49322E-06     69.1174E-03     330.566E-03    -164.949E-03    -165.617E-03    -164.958E-03     330.563E-03    -165.605E-03     1.27000E-03     330.768E-03     184.486E+06    -181.919E+06    -186.892E+06    -368.839E+06    -184.024E+06    -368.820E+06    -184.806E+06    -584.856E+03
              29     67.7303E-03     1.48753E-06     67.7303E-03     330.318E-03    -164.258E-03    -166.060E-03    -166.059E-03     330.316E-03    -164.258E-03     884.377E-06     330.528E-03     185.225E+06    -179.870E+06    -186.266E+06    -368.209E+06    -183.386E+06    -368.202E+06    -182.758E+06     1.14660E+06
              30     66.3379E-03     1.59388E-06     66.3379E-03     330.310E-03    -164.142E-03    -166.169E-03    -166.167E-03     330.309E-03    -164.142E-03     1.71335E-03     330.495E-03     183.344E+06    -178.730E+06    -185.460E+06    -365.346E+06    -182.242E+06    -365.342E+06    -181.951E+06     288.400E+03
              31     64.9508E-03    -1.22460E-06     64.9508E-03     329.544E-03    -163.870E-03    -165.674E-03    -164.106E-03     329.543E-03    -165.437E-03     940.908E-06     329.733E-03     185.024E+06    -180.891E+06    -185.682E+06    -368.258E+06    -182.466E+06    -368.253E+06    -184.113E+06    -907.087E+03
              32     63.5612E-03    -1.41081E-06     63.5612E-03     330.012E-03    -163.673E-03    -166.339E-03    -164.771E-03     330.011E-03    -165.240E-03     1.07739E-03     330.221E-03     188.124E+06    -179.838E+06    -182.389E+06    -369.224E+06    -181.430E+06    -369.202E+06    -180.819E+06     648.447E+03
              33     62.1695E-03     3.26665E-06     62.1695E-03     331.236E-03    -164.721E-03    -166.515E-03    -166.513E-03     331.234E-03    -164.721E-03     1.99823E-03     331.436E-03     187.332E+06    -179.911E+06    -182.653E+06    -368.598E+06    -181.719E+06    -368.551E+06    -180.892E+06    -334.509E+03
              34     60.7785E-03    -2.06552E-06     60.7785E-03     330.387E-03    -164.618E-03    -165.769E-03    -165.767E-03     330.385E-03    -164.618E-03     1.32438E-03     330.580E-03     187.818E+06    -178.834E+06    -183.132E+06    -368.764E+06    -180.690E+06    -368.669E+06    -181.371E+06     882.776E+03
              35     59.3896E-03     2.81595E-06     59.3896E-03     329.244E-03    -164.090E-03    -165.155E-03    -164.543E-03     329.242E-03    -164.699E-03     1.46124E-03     329.437E-03     188.073E+06    -178.315E+06    -184.142E+06    -369.232E+06    -181.750E+06    -369.088E+06    -180.852E+06    -166.374E+03
              36     58.0034E-03    -3.80849E-06     58.0034E-03     329.688E-03    -164.300E-03    -165.388E-03    -164.298E-03     329.686E-03    -165.388E-03     926.910E-06     329.891E-03     189.430E+06    -177.802E+06    -185.765E+06    -371.085E+06    -181.232E+06    -370.945E+06    -182.475E+06    -219.481E+03
              37     56.6128E-03     2.94591E-06     56.6128E-03     330.799E-03    -164.934E-03    -165.865E-03    -165.384E-03     330.797E-03    -165.413E-03     835.712E-06     331.003E-03     190.363E+06    -174.340E+06    -182.976E+06    -368.873E+06    -178.390E+06    -368.786E+06    -179.013E+06     898.877E+03
              38     55.2193E-03    -2.13039E-06     55.2193E-03     330.547E-03    -164.668E-03    -165.879E-03    -165.877E-03     330.545E-03    -164.668E-03     1.13177E-03     330.739E-03     189.733E+06    -175.692E+06    -183.363E+06    -369.143E+06    -179.686E+06    -369.112E+06    -179.400E+06    -866.931E+03
              39     53.8323E-03     3.37896E-06     53.8323E-03     330.239E-03    -163.884E-03    -166.355E-03    -166.352E-03     330.236E-03    -163.884E-03     1.38339E-03     330.425E-03     188.430E+06    -176.661E+06    -183.834E+06    -368.575E+06    -180.131E+06    -368.569E+06    -180.370E+06     936.952E+03
              40     52.4401E-03    -433.421E-09     52.4401E-03     330.298E-03    -163.958E-03    -166.340E-03    -165.667E-03     330.295E-03    -164.628E-03     2.30027E-03     330.488E-03     186.742E+06    -176.766E+06    -182.665E+06    -366.386E+06    -180.240E+06    -366.376E+06    -179.201E+06    -680.865E+03
              41     51.0513E-03    -725.060E-09     51.0513E-03     329.861E-03    -164.282E-03    -165.579E-03    -164.281E-03     329.860E-03    -165.579E-03     1.30052E-03     330.055E-03     188.812E+06    -177.666E+06    -182.636E+06    -368.914E+06    -180.210E+06    -368.905E+06    -180.100E+06    -954.260E+03
              42     49.6637E-03    -304.260E-09     49.6637E-03     330.424E-03    -164.761E-03    -165.663E-03    -165.035E-03     330.424E-03    -165.388E-03     1.02960E-03     330.635E-03     189.496E+06    -178.090E+06    -183.292E+06    -370.133E+06    -180.626E+06    -370.133E+06    -180.756E+06     274.457E+03
              43     48.2712E-03     746.175E-09     48.2712E-03     330.772E-03    -165.104E-03    -165.669E-03    -165.668E-03     330.771E-03    -165.104E-03     1.28355E-03     330.971E-03     188.769E+06    -176.025E+06    -180.835E+06    -367.152E+06    -178.169E+06    -367.151E+06    -178.692E+06     364.394E+03
              44     46.8798E-03    -223.949E-09     46.8798E-03     329.822E-03    -164.425E-03    -165.398E-03    -164.713E-03     329.820E-03    -165.107E-03     2.06176E-03     329.994E-03     185.811E+06    -177.939E+06    -183.883E+06    -366.644E+06    -180.085E+06    -366.642E+06    -181.740E+06    -460.827E+03
              45     45.4932E-03    -974.484E-09     45.4932E-03     329.773E-03    -164.401E-03    -165.372E-03    -164.400E-03     329.772E-03    -165.372E-03     1.25094E-03     329.968E-03     186.160E+06    -178.895E+06    -184.621E+06    -367.845E+06    -180.826E+06    -367.838E+06    -182.696E+06     37.2470E+03
              46     44.1050E-03     514.108E-09     44.1050E-03     330.517E-03    -164.278E-03    -166.239E-03    -165.950E-03     330.517E-03    -164.567E-03     306.830E-06     330.733E-03     184.970E+06    -178.810E+06    -180.886E+06    -364.803E+06    -180.738E+06    -364.800E+06    -178.962E+06     550.335E+03
              47     42.7103E-03     2.32734E-06     42.7103E-03     329.949E-03    -163.764E-03    -166.184E-03    -166.183E-03     329.947E-03    -163.764E-03     1.37838E-03     330.132E-03     182.854E+06    -180.614E+06    -183.428E+06    -364.846E+06    -183.283E+06    -364.839E+06    -180.766E+06    -777.504E+03
              48     41.3251E-03    -1.02456E-06     41.3251E-03     329.452E-03    -163.970E-03    -165.483E-03    -164.716E-03     329.450E-03    -164.734E-03     2.06358E-03     329.634E-03     184.707E+06    -179.154E+06    -185.386E+06    -366.896E+06    -181.824E+06    -366.888E+06    -182.724E+06    -385.358E+03
              49     39.9345E-03    -308.442E-09     39.9345E-03     329.897E-03    -164.294E-03    -165.603E-03    -164.293E-03     329.895E-03    -165.603E-03     1.60108E-03     330.103E-03     183.182E+06    -180.973E+06    -186.256E+06    -366.732E+06    -182.688E+06    -366.730E+06    -184.543E+06     566.609E+03
              50     38.5441E-03    -587.375E-09     38.5441E-03     329.941E-03    -164.492E-03    -165.449E-03    -164.905E-03     329.941E-03    -165.036E-03     1.24665E-03     330.129E-03     183.405E+06    -180.662E+06    -183.878E+06    -365.654E+06    -182.376E+06    -365.653E+06    -182.165E+06     286.064E+03
              51     37.1574E-03     1.27746E-06     37.1574E-03     330.572E-03    -164.607E-03    -165.965E-03    -165.964E-03     330.572E-03    -164.607E-03     1.21517E-03     330.764E-03     182.349E+06    -178.908E+06    -182.330E+06    -362.943E+06    -180.828E+06    -362.942E+06    -180.411E+06     342.480E+03
              52     35.7644E-03     352.194E-09     35.7644E-03     330.934E-03    -164.793E-03    -166.140E-03    -165.736E-03     330.932E-03    -165.196E-03     1.68065E-03     331.142E-03     181.034E+06    -180.616E+06    -183.612E+06    -363.128E+06    -182.537E+06    -363.127E+06    -181.693E+06     36.3985E+03
              53     34.3727E-03    -1.04219E-06     34.3727E-03     329.861E-03    -164.549E-03    -165.312E-03    -164.908E-03     329.860E-03    -164.952E-03     1.16540E-03     330.054E-03     181.654E+06    -179.448E+06    -181.149E+06    -361.947E+06    -180.077E+06    -361.942E+06    -180.525E+06     372.508E+03
              54     32.9872E-03     1.66803E-06     32.9872E-03     329.392E-03    -163.731E-03    -165.661E-03    -165.659E-03     329.391E-03    -163.731E-03     1.35392E-03     329.582E-03     178.858E+06    -181.270E+06    -183.430E+06    -361.197E+06    -183.448E+06    -361.179E+06    -181.270E+06    -531.568E+03
              55     31.5947E-03     1.01767E-06     31.5947E-03     330.188E-03    -163.850E-03    -166.338E-03    -165.415E-03     330.183E-03    -164.768E-03     3.06228E-03     330.393E-03     179.055E+06    -181.123E+06    -186.219E+06    -362.664E+06    -182.689E+06    -362.634E+06    -184.683E+06     111.670E+03
              56     30.2070E-03    -2.61362E-06     30.2070E-03     329.857E-03    -164.163E-03    -165.694E-03    -164.157E-03     329.851E-03    -165.694E-03     216.380E-06     330.061E-03     177.382E+06    -178.401E+06    -184.752E+06    -358.872E+06    -181.209E+06    -358.856E+06    -181.961E+06     1.44271E+06
              57     28.8203E-03     1.60675E-06     28.8203E-03     328.870E-03    -163.660E-03    -165.209E-03    -163.652E-03     328.861E-03    -165.209E-03     764.174E-06     329.076E-03     174.838E+06    -180.130E+06    -185.275E+06    -357.483E+06    -182.947E+06    -357.457E+06    -182.484E+06    -1.27254E+06
              58     27.4275E-03    -3.22636E-06     27.4275E-03     329.586E-03    -164.168E-03    -165.418E-03    -164.475E-03     329.580E-03    -165.105E-03     2.26941E-03     329.792E-03     177.456E+06    -182.245E+06    -185.460E+06    -361.282E+06    -183.154E+06    -361.234E+06    -184.599E+06    -61.0968E+03
              59     26.0401E-03     3.77535E-06     26.0401E-03     329.771E-03    -164.317E-03    -165.455E-03    -165.453E-03     329.770E-03    -164.317E-03     1.13102E-03     329.969E-03     178.721E+06    -181.428E+06    -183.158E+06    -361.008E+06    -182.322E+06    -360.974E+06    -182.298E+06     478.973E+03
              60     24.6530E-03    -2.38214E-06     24.6530E-03     329.154E-03    -163.982E-03    -165.173E-03    -164.805E-03     329.153E-03    -164.348E-03     1.35534E-03     329.344E-03     175.677E+06    -184.814E+06    -186.797E+06    -361.474E+06    -185.958E+06    -361.442E+06    -185.684E+06     402.012E+03
              61     23.2620E-03     1.77948E-06     23.2620E-03     328.107E-03    -163.547E-03    -164.559E-03    -164.192E-03     328.106E-03    -163.914E-03     1.02321E-03     328.288E-03     175.323E+06    -182.852E+06    -184.164E+06    -358.825E+06    -184.221E+06    -358.769E+06    -182.852E+06    -403.804E+03
              62     21.8762E-03    -674.399E-09     21.8762E-03     326.008E-03    -162.679E-03    -163.329E-03    -163.323E-03     326.007E-03    -162.684E-03     1.44200E-03     326.195E-03     176.503E+06    -180.161E+06    -181.046E+06    -357.104E+06    -180.396E+06    -357.069E+06    -180.846E+06    -1.76115E+06
              63     20.4975E-03     664.206E-09     20.4975E-03     323.399E-03    -161.478E-03    -161.921E-03    -161.478E-03     323.399E-03    -161.921E-03     122.464E-06     323.583E-03     175.782E+06    -183.187E+06    -184.389E+06    -359.567E+06    -183.704E+06    -359.567E+06    -183.873E+06     148.515E+03
              64     19.1151E-03    -1.39529E-06     19.1151E-03     318.305E-03    -158.920E-03    -159.386E-03    -158.919E-03     318.305E-03    -159.386E-03    -722.030E-06     318.463E-03     175.099E+06    -183.678E+06    -185.250E+06    -359.557E+06    -184.201E+06    -359.550E+06    -184.734E+06    -640.221E+03
              65     17.7482E-03     1.34322E-06     17.7482E-03     310.270E-03    -154.795E-03    -155.475E-03    -155.445E-03     310.269E-03    -154.824E-03    -1.22421E-03     310.397E-03     175.776E+06    -182.315E+06    -184.366E+06    -359.108E+06    -183.335E+06    -359.083E+06    -183.372E+06     480.704E+03
              66     16.3915E-03    -205.996E-09     16.3915E-03     299.277E-03    -149.287E-03    -149.990E-03    -149.987E-03     299.274E-03    -149.287E-03    -2.21995E-03     299.383E-03     175.628E+06    -182.563E+06    -183.855E+06    -358.832E+06    -183.899E+06    -358.788E+06    -182.563E+06    -245.903E+03
              67     15.0523E-03     311.101E-09     15.0523E-03     284.262E-03    -141.632E-03    -142.631E-03    -142.621E-03     284.253E-03    -141.632E-03    -3.76484E-03     284.362E-03     174.612E+06    -184.825E+06    -185.292E+06    -359.670E+06    -185.154E+06    -359.640E+06    -184.994E+06    -884.253E+03
              68     13.7363E-03     1.34662E-06     13.7363E-03     266.030E-03    -132.171E-03    -133.859E-03    -133.842E-03     266.013E-03    -132.171E-03    -5.14669E-03     266.116E-03     171.286E+06    -186.019E+06    -187.081E+06    -357.832E+06    -186.920E+06    -357.825E+06    -186.187E+06     1.14629E+06
              69     12.4487E-03    -34.4575E-09     12.4487E-03     247.121E-03    -123.134E-03    -123.987E-03    -123.845E-03     247.090E-03    -123.245E-03    -6.58304E-03     247.216E-03     170.292E+06    -189.067E+06    -190.603E+06    -360.122E+06    -189.965E+06    -360.118E+06    -189.709E+06     319.498E+03
              70     11.1817E-03    -202.328E-09     11.1817E-03     231.906E-03    -115.597E-03    -116.310E-03    -116.163E-03     231.871E-03    -115.708E-03    -7.03812E-03     232.041E-03     170.216E+06    -193.226E+06    -194.524E+06    -364.087E+06    -193.886E+06    -364.083E+06    -193.868E+06    -747.913E+03
              71     9.93286E-03     1.25520E-06     9.93286E-03     227.002E-03    -113.152E-03    -113.850E-03    -113.834E-03     226.986E-03    -113.152E-03    -4.04018E-03     227.187E-03     169.695E+06    -190.136E+06    -191.847E+06    -360.679E+06    -190.798E+06    -360.673E+06    -191.191E+06    -54.7794E+03
              72     8.67826E-03    -1.08331E-06     8.67826E-03     237.511E-03    -118.635E-03    -118.877E-03    -118.730E-03     237.510E-03    -118.780E-03    -386.883E-06     237.769E-03     171.220E+06    -186.357E+06    -187.880E+06    -358.332E+06    -186.828E+06    -358.329E+06    -187.412E+06     631.303E+03
              73     7.40202E-03     877.602E-09     7.40202E-03     265.263E-03    -132.421E-03    -132.842E-03    -132.685E-03     265.252E-03    -132.567E-03     3.51514E-03     265.646E-03     174.410E+06    -173.520E+06    -175.283E+06    -348.803E+06    -174.118E+06    -348.673E+06    -174.814E+06     3.54952E+06
              74     6.07722E-03    -306.525E-09     6.07722E-03     309.581E-03    -154.455E-03    -155.126E-03    -154.697E-03     309.548E-03    -154.851E-03     7.71617E-03     310.244E-03     181.373E+06    -147.946E+06    -150.126E+06    -330.398E+06    -148.977E+06    -330.252E+06    -149.241E+06     4.62913E+06
              75     4.67997E-03    -212.827E-09     4.67997E-03     366.302E-03    -182.406E-03    -183.895E-03    -183.450E-03     366.252E-03    -182.802E-03     10.4542E-03     367.232E-03     184.774E+06    -126.031E+06    -128.148E+06    -311.854E+06    -127.008E+06    -311.762E+06    -127.264E+06     3.87213E+06
              76     3.19353E-03     2.13613E-06     3.19353E-03     424.058E-03    -211.209E-03    -212.849E-03    -212.803E-03     424.012E-03    -211.209E-03     10.7262E-03     425.073E-03     181.891E+06    -109.937E+06    -113.625E+06    -293.640E+06    -112.472E+06    -293.561E+06    -111.169E+06     3.21520E+06
              77     1.61905E-03    -1.17221E-06     1.61905E-03     465.766E-03    -232.086E-03    -233.681E-03    -232.613E-03     465.746E-03    -233.134E-03     6.60031E-03     466.761E-03     177.372E+06    -99.5105E+06    -103.205E+06    -278.698E+06    -102.012E+06    -278.652E+06    -100.749E+06     2.48095E+06
              78     783.728E-06     783.728E-06    -27.7556E-18     477.540E-03    -237.497E-03    -240.043E-03    -237.481E-03     477.524E-03    -240.043E-03     6.10754E-03     478.445E-03     179.757E+06    -92.8937E+06    -96.9276E+06    -274.629E+06    -95.7341E+06    -274.584E+06    -94.1323E+06     2.47277E+06
              79     1.57024E-03     1.57024E-03    -27.7556E-18     468.377E-03    -231.102E-03    -237.275E-03    -231.063E-03     468.339E-03    -237.275E-03     10.3066E-03     469.275E-03     180.957E+06    -90.6160E+06    -96.0931E+06    -274.250E+06    -96.1114E+06    -274.231E+06    -90.6160E+06     1.69547E+06
              80     2.36636E-03     2.36636E-03    -27.7556E-18     453.694E-03    -220.149E-03    -233.545E-03    -220.085E-03     453.629E-03    -233.545E-03     13.0566E-03     454.610E-03     179.482E+06    -86.1802E+06    -95.5084E+06    -270.113E+06    -95.5846E+06    -270.037E+06    -86.1802E+06     3.45074E+06
              81     3.17240E-03     3.17240E-03    -27.7556E-18     435.816E-03    -207.142E-03    -228.675E-03    -207.044E-03     435.718E-03    -228.675E-03     15.7634E-03     436.761E-03     182.745E+06    -77.8436E+06    -95.9278E+06    -268.915E+06    -96.0376E+06    -268.805E+06    -77.8436E+06     4.35104E+06
              82     3.98946E-03     3.98946E-03    -27.7556E-18     416.153E-03    -193.139E-03    -223.013E-03    -193.006E-03     416.019E-03    -223.013E-03     17.9780E-03     417.270E-03     177.435E+06    -68.4584E+06    -95.3091E+06    -257.733E+06    -95.3827E+06    -257.659E+06    -68.4584E+06     3.42562E+06
              83     4.81923E-03     4.81923E-03    -27.7556E-18     395.789E-03    -178.976E-03    -216.813E-03    -178.820E-03     395.633E-03    -216.813E-03     18.8964E-03     397.264E-03     153.727E+06    -61.4680E+06    -92.4871E+06    -228.307E+06    -92.5121E+06    -228.282E+06    -61.4680E+06     1.33794E+06
              84     5.66239E-03     5.66239E-03    -27.7556E-18     376.012E-03    -165.669E-03    -210.343E-03    -165.499E-03     375.843E-03    -210.343E-03     19.1250E-03     378.027E-03     120.025E+06    -56.4488E+06    -87.2848E+06    -188.826E+06    -87.3287E+06    -188.783E+06    -56.4488E+06    -1.39928E+06
              85     6.51365E-03     6.51365E-03    -27.7556E-18     357.264E-03    -153.424E-03    -203.840E-03    -153.246E-03     357.086E-03    -203.840E-03     19.0827E-03     359.907E-03     84.4635E+06    -51.0389E+06    -80.3913E+06    -146.112E+06    -80.5420E+06    -145.962E+06    -51.0389E+06    -2.94376E+06
              86     7.37907E-03     7.37907E-03    -27.7556E-18     341.529E-03    -144.009E-03    -197.519E-03    -143.818E-03     341.338E-03    -197.519E-03     19.2484E-03     344.931E-03     47.8437E+06    -46.1326E+06    -67.1441E+06    -100.879E+06    -71.4044E+06    -96.6188E+06    -46.1326E+06    -6.54440E+06
              87     8.24836E-03     8.24836E-03    -27.7556E-18     328.925E-03    -137.316E-03    -191.609E-03    -137.106E-03     328.715E-03    -191.609E-03     19.7947E-03     333.266E-03     39.0484E+06    -21.4266E+06    -47.7028E+06    -65.6115E+06    -58.7545E+06    -35.1725E+06    -40.8139E+06    -9.92372E+06
              88     9.12017E-03     9.12017E-03    -27.7556E-18     317.236E-03    -131.063E-03    -186.173E-03    -130.826E-03     316.999E-03    -186.173E-03     20.5912E-03     322.518E-03     75.3200E+06     34.4196E+06    -33.1146E+06    -46.3249E+06    -45.0256E+06     33.1203E+06    -33.1146E+06    -9.34807E+06
              89     10.0040E-03     10.0040E-03    -27.7556E-18     308.296E-03    -126.985E-03    -181.310E-03    -126.733E-03     308.044E-03    -181.310E-03     20.9343E-03     314.440E-03     102.392E+06     76.4603E+06    -13.0999E+06    -34.5104E+06    -34.1066E+06     76.0565E+06    -13.0999E+06    -5.94435E+06
              90     10.8842E-03     10.8842E-03    -27.7556E-18     303.022E-03    -125.908E-03    -177.114E-03    -125.559E-03     302.674E-03    -177.114E-03     24.1668E-03     310.168E-03     104.369E+06     91.7145E+06     17.4528E+06    -26.9057E+06    -26.8633E+06     91.6720E+06     17.4528E+06    -1.54470E+06
              91     11.7617E-03     11.7617E-03    -27.7556E-18     302.178E-03    -128.547E-03    -173.631E-03    -128.110E-03     301.741E-03    -173.631E-03     27.4296E-03     310.786E-03     107.757E+06     102.179E+06     50.5509E+06    -20.6420E+06    -20.6420E+06     102.179E+06     50.5509E+06    -42.6653E+03
              92     12.6497E-03     12.6497E-03    -27.7556E-18     309.140E-03    -138.074E-03    -171.066E-03    -137.275E-03     308.341E-03    -171.066E-03     36.7665E-03     320.450E-03     113.420E+06     103.005E+06     83.1246E+06    -17.8750E+06    -17.7291E+06     102.859E+06     83.1246E+06     2.87535E+06
              93     13.4906E-03     13.4906E-03    -27.7556E-18     322.287E-03    -152.747E-03    -169.539E-03    -150.296E-03     319.835E-03    -169.539E-03     65.7963E-03     339.277E-03     123.297E+06     109.226E+06     104.779E+06    -16.2219E+06    -15.8534E+06     105.511E+06     108.126E+06     6.67008E+06
              94     14.3364E-03     14.3364E-03    -27.7556E-18     361.201E-03    -165.420E-03    -195.781E-03    -186.289E-03     355.901E-03    -169.612E-03     107.249E-03     390.550E-03     136.523E+06     140.781E+06     128.458E+06    -1.41688E+06    -1.16106E+06     128.202E+06     140.781E+06     2.24523E+06
              95     15.2853E-03     15.2062E-03     1.55226E-03     375.174E-03    -168.794E-03    -206.380E-03    -200.873E-03     369.667E-03    -168.794E-03     112.119E-03     441.471E-03     146.658E+06     152.264E+06     138.224E+06    -864.006E+03    -750.003E+03     138.110E+06     152.264E+06     923.147E+03
              96     15.5389E-03     15.2614E-03     2.92367E-03     344.272E-03    -166.313E-03    -177.959E-03    -174.636E-03     341.177E-03    -166.541E-03     79.2607E-03     431.594E-03     147.927E+06     142.904E+06     132.920E+06     -9.7614E+06    -9.68031E+06     132.839E+06     142.904E+06     2.54083E+06
              97     15.8694E-03     15.2750E-03     4.30243E-03     338.082E-03    -164.941E-03    -173.141E-03    -171.715E-03     336.884E-03    -165.168E-03     45.3768E-03     402.844E-03     146.125E+06     145.189E+06     135.844E+06    -5.38331E+06    -5.38222E+06     135.843E+06     145.189E+06     374.276E+03
              98     16.3179E-03     15.2778E-03     5.73281E-03     344.711E-03    -164.606E-03    -180.106E-03    -179.534E-03     344.140E-03    -164.606E-03     33.9371E-03     392.901E-03     145.808E+06     145.414E+06     137.116E+06    -4.36524E+06    -4.36381E+06     137.114E+06     145.414E+06     45.1426E+03
              99     16.8636E-03     15.2790E-03     7.13666E-03     346.103E-03    -164.485E-03    -181.618E-03    -180.883E-03     345.367E-03    -164.485E-03     39.3439E-03     392.815E-03     145.432E+06     144.496E+06     137.232E+06    -4.43086E+06    -4.42935E+06     137.231E+06     144.496E+06    -459.413E+03
             100     17.5157E-03     15.2786E-03     8.56518E-03     348.528E-03    -164.416E-03    -184.112E-03    -183.300E-03     347.715E-03    -164.416E-03     41.4274E-03     395.997E-03     144.767E+06     143.927E+06     137.275E+06    -4.05155E+06    -4.04925E+06     137.273E+06     143.927E+06    -566.748E+03
             101     18.2499E-03     15.2781E-03     9.98188E-03     349.210E-03    -164.434E-03    -184.776E-03    -183.762E-03     348.197E-03    -164.434E-03     46.4540E-03     398.294E-03     144.474E+06     143.742E+06      137.41E+06    -3.79406E+06    -3.79127E+06     137.407E+06     143.742E+06     10.5573E+03
             102     19.0661E-03     15.2777E-03     11.4065E-03     349.087E-03    -164.461E-03    -184.626E-03    -183.455E-03     347.917E-03    -164.461E-03     49.8890E-03     399.966E-03     144.542E+06     143.678E+06     137.720E+06    -3.75115E+06    -3.74971E+06     137.718E+06     143.678E+06     326.542E+03
             103     19.9454E-03     15.2780E-03     12.8219E-03     348.579E-03    -164.482E-03    -184.097E-03    -182.788E-03     347.270E-03    -164.482E-03     52.7419E-03     401.158E-03     144.677E+06     143.398E+06     137.615E+06    -4.08383E+06    -4.08346E+06     137.615E+06     143.398E+06     168.121E+03
             104     20.8867E-03     15.2776E-03     14.2425E-03     347.727E-03    -164.525E-03    -183.202E-03    -181.754E-03     346.279E-03    -164.525E-03     55.3465E-03     401.516E-03     144.918E+06     143.915E+06     138.424E+06    -3.66997E+06    -3.66753E+06     138.422E+06     143.915E+06     545.118E+03
             105     21.8774E-03     15.2772E-03     15.6597E-03     345.437E-03    -164.612E-03    -180.826E-03    -179.245E-03     343.856E-03    -164.612E-03     57.5968E-03     400.401E-03     144.909E+06     143.353E+06     138.311E+06    -4.01152E+06    -4.00628E+06     138.305E+06     143.353E+06     858.574E+03
             106     22.9052E-03     15.2773E-03     17.0661E-03     342.666E-03    -164.689E-03    -177.977E-03    -176.390E-03     341.079E-03    -164.689E-03     57.3978E-03     398.699E-03     144.771E+06     142.612E+06     137.966E+06    -4.42578E+06    -4.42209E+06     137.963E+06     142.612E+06     666.753E+03
             107     23.9703E-03     15.2774E-03     18.4709E-03     340.547E-03    -164.733E-03    -175.813E-03    -174.263E-03     338.997E-03    -164.733E-03     56.4966E-03     397.279E-03     144.896E+06     142.653E+06     138.381E+06    -4.33125E+06    -4.33060E+06     138.380E+06     142.653E+06     287.022E+03
             108     25.0695E-03     15.2778E-03     19.8764E-03     338.586E-03    -164.780E-03    -173.807E-03    -172.232E-03     337.011E-03    -164.780E-03     56.7276E-03     395.821E-03     145.138E+06     143.138E+06     138.979E+06    -4.03497E+06    -4.03173E+06     138.976E+06     143.138E+06    -377.625E+03
             109     26.1925E-03     15.2776E-03     21.2754E-03     336.480E-03    -164.830E-03    -171.650E-03    -170.117E-03     334.947E-03    -164.830E-03     55.7306E-03     393.859E-03     145.196E+06     143.051E+06     139.050E+06    -4.10358E+06    -4.09959E+06     139.046E+06     143.051E+06    -722.509E+03
             110     27.3386E-03     15.2780E-03     22.6711E-03     334.714E-03    -164.864E-03    -169.850E-03    -168.348E-03     333.212E-03    -164.864E-03     54.9731E-03     391.949E-03     145.129E+06     142.466E+06     138.732E+06    -4.49388E+06    -4.49203E+06     138.731E+06     142.466E+06    -514.801E+03
             111     28.5085E-03     15.2781E-03     24.0690E-03     333.546E-03    -164.895E-03    -168.651E-03    -167.136E-03     332.030E-03    -164.895E-03     55.0903E-03     390.477E-03     145.059E+06     142.852E+06     139.051E+06    -4.07001E+06    -4.06687E+06     139.048E+06     142.852E+06    -658.679E+03
             112     29.6941E-03     15.2778E-03     25.4623E-03     332.053E-03    -164.948E-03    -167.105E-03    -165.634E-03     330.582E-03    -164.948E-03     54.1193E-03     388.764E-03     144.533E+06     142.368E+06     138.133E+06    -4.23626E+06    -4.23404E+06     138.131E+06     142.368E+06    -336.241E+03
             113     30.8949E-03     15.2776E-03     26.8531E-03     330.418E-03    -164.857E-03    -165.561E-03    -163.972E-03     328.970E-03    -164.999E-03     53.5113E-03     386.997E-03     144.406E+06     142.065E+06     137.918E+06    -4.36994E+06    -4.36985E+06     137.918E+06     142.065E+06     7.53109E+03
             114     32.1100E-03     15.2780E-03     28.2425E-03     329.761E-03    -164.749E-03    -165.012E-03    -163.317E-03     328.329E-03    -165.012E-03     53.1511E-03     386.093E-03     144.063E+06     141.917E+06     137.569E+06    -4.26940E+06    -4.26855E+06     137.569E+06     141.917E+06    -288.738E+03
             115     33.3386E-03     15.2776E-03     29.6321E-03     329.674E-03    -164.654E-03    -165.020E-03    -163.261E-03     328.281E-03    -165.020E-03     52.4138E-03     385.851E-03     143.525E+06     142.183E+06     136.946E+06    -3.88891E+06    -3.88804E+06     136.945E+06     142.183E+06    -169.260E+03
             116     34.5802E-03     15.2777E-03     31.0223E-03     329.363E-03    -164.340E-03    -165.023E-03    -162.925E-03     327.948E-03    -165.023E-03     52.7801E-03     385.515E-03     143.025E+06     141.640E+06     135.787E+06    -4.22183E+06    -4.22147E+06     135.787E+06     141.640E+06    -73.8618E+03
             117     35.8314E-03     15.2784E-03     32.4108E-03     329.455E-03    -164.443E-03    -165.012E-03    -163.020E-03     328.032E-03    -165.012E-03     52.9425E-03     385.542E-03     142.188E+06     141.126E+06     135.004E+06    -4.02354E+06    -4.02318E+06     135.004E+06     141.126E+06    -213.179E+03
             118     37.0944E-03     15.2774E-03     33.8023E-03     330.123E-03    -164.875E-03    -165.248E-03    -163.703E-03     328.709E-03    -165.007E-03     52.8478E-03     386.189E-03     141.872E+06     140.748E+06     134.839E+06    -3.98627E+06    -3.98619E+06     134.839E+06     140.748E+06    -40.6362E+03
             119     38.3645E-03     15.2778E-03     35.1913E-03     329.979E-03    -164.729E-03    -165.250E-03    -163.597E-03     328.605E-03    -165.008E-03     52.0700E-03     386.018E-03     141.464E+06     140.493E+06     134.254E+06    -3.98680E+06    -3.98672E+06     134.254E+06     140.493E+06    -36.4150E+03
             120     39.6437E-03     15.2780E-03     36.5815E-03     329.457E-03    -164.442E-03    -165.016E-03    -163.062E-03     328.078E-03    -165.016E-03     52.1141E-03     385.460E-03     141.738E+06     141.473E+06     134.139E+06    -3.78957E+06    -3.78949E+06     134.139E+06     141.473E+06    -93.8319E+03
             121     40.9305E-03     15.2779E-03     37.9722E-03     329.655E-03    -164.636E-03    -165.020E-03    -163.229E-03     328.248E-03    -165.020E-03     52.6549E-03     385.621E-03     142.111E+06     141.806E+06     133.301E+06    -4.36543E+06    -4.36541E+06     133.301E+06     141.806E+06    -5.46908E+03
             122     42.2221E-03     15.2776E-03     39.3611E-03     329.450E-03    -164.424E-03    -165.026E-03    -163.053E-03     328.080E-03    -165.026E-03     51.9566E-03     385.456E-03     141.714E+06     142.258E+06     132.513E+06    -4.07555E+06    -4.07549E+06     132.513E+06     142.258E+06     78.7996E+03
             123     43.5202E-03     15.2784E-03     40.7502E-03     329.246E-03    -164.217E-03    -165.029E-03    -162.826E-03     327.856E-03    -165.029E-03     52.3181E-03     385.217E-03     141.514E+06     142.399E+06     131.811E+06    -4.11138E+06    -4.11108E+06     131.811E+06     142.399E+06    -75.4731E+03
             124     44.8251E-03     15.2775E-03     42.1413E-03     329.483E-03    -164.453E-03    -165.030E-03    -163.053E-03     328.083E-03    -165.030E-03     52.5150E-03     385.406E-03     141.418E+06     142.886E+06     132.236E+06    -3.55611E+06    -3.55236E+06     132.232E+06     142.886E+06     354.473E+03
             125     46.1324E-03     15.2782E-03     43.5290E-03     329.460E-03    -164.434E-03    -165.026E-03    -163.039E-03     328.065E-03    -165.026E-03     52.4313E-03     385.348E-03     142.007E+06     142.520E+06     132.106E+06    -4.40717E+06    -4.40365E+06     132.103E+06     142.520E+06     438.350E+03
             126     47.4470E-03     15.2779E-03     44.9200E-03     329.734E-03    -164.709E-03    -165.025E-03    -163.327E-03     328.349E-03    -165.022E-03     52.2678E-03     385.727E-03     142.160E+06     142.881E+06     132.257E+06    -4.29215E+06    -4.29208E+06     132.257E+06     142.881E+06    -99.0982E+03
             127     48.7648E-03     15.2776E-03     46.3098E-03     329.863E-03    -164.828E-03    -165.035E-03    -163.464E-03     328.496E-03    -165.032E-03     51.9538E-03     385.997E-03     142.121E+06     143.268E+06     132.608E+06    -3.88243E+06    -3.88134E+06     132.607E+06     143.268E+06    -319.742E+03
             128     50.0864E-03     15.2777E-03     47.6995E-03     329.388E-03    -164.345E-03    -165.042E-03    -162.958E-03     328.000E-03    -165.042E-03     52.2742E-03     385.460E-03     141.295E+06     142.344E+06     131.594E+06    -4.01868E+06    -4.01515E+06     131.591E+06     142.344E+06     138.090E+03
             129     51.4129E-03     15.2779E-03     49.0904E-03     329.112E-03    -164.074E-03    -165.038E-03    -162.644E-03     327.682E-03    -165.038E-03     53.0278E-03     385.219E-03     141.379E+06     142.407E+06     132.244E+06    -3.77675E+06    -3.77313E+06     132.240E+06     142.407E+06     689.264E+03
             130     52.7386E-03     15.2782E-03     50.4771E-03     329.321E-03    -164.299E-03    -165.022E-03    -162.906E-03     327.928E-03    -165.022E-03     52.3648E-03     385.379E-03     142.520E+06     142.762E+06     133.236E+06    -4.28205E+06    -4.28042E+06     133.234E+06     142.762E+06     100.112E+03
             131     54.0712E-03     15.2780E-03     51.8679E-03     329.546E-03    -164.531E-03    -165.015E-03    -163.155E-03     328.170E-03    -165.015E-03     52.0712E-03     385.492E-03     142.515E+06     143.349E+06     133.789E+06    -3.70517E+06    -3.70364E+06     133.788E+06     143.349E+06     85.8488E+03
             132     55.4065E-03     15.2782E-03     53.2584E-03     329.661E-03    -164.642E-03    -165.019E-03    -163.238E-03     328.257E-03    -165.019E-03     52.6110E-03     385.585E-03     143.061E+06     142.996E+06     133.921E+06    -4.38655E+06    -4.38512E+06     133.920E+06     142.996E+06     431.924E+03
             133     56.7430E-03     15.2777E-03     54.6476E-03     329.622E-03    -164.598E-03    -165.025E-03    -163.210E-03     328.235E-03    -165.025E-03     52.3012E-03     385.600E-03     143.264E+06     143.692E+06     134.565E+06    -3.91678E+06    -3.91619E+06     134.565E+06     143.692E+06     46.7627E+03
             134     58.0826E-03     15.2783E-03     56.0371E-03     329.567E-03    -164.543E-03    -165.023E-03    -163.144E-03     328.167E-03    -165.023E-03     52.5187E-03     385.560E-03     143.069E+06     143.629E+06     133.952E+06    -4.03242E+06    -4.03209E+06     133.951E+06     143.629E+06    -210.843E+03
             135     59.4259E-03     15.2778E-03     57.4284E-03     329.661E-03    -164.634E-03    -165.027E-03    -163.233E-03     328.260E-03    -165.027E-03     52.5686E-03     385.573E-03     143.116E+06     143.624E+06     133.736E+06    -4.17959E+06    -4.17946E+06     133.736E+06     143.624E+06    -106.613E+03
             136     60.7686E-03     15.2779E-03     58.8167E-03     329.457E-03    -164.425E-03    -165.032E-03    -163.051E-03     328.083E-03    -165.032E-03     52.0437E-03     385.379E-03     142.453E+06     143.016E+06     132.964E+06    -4.19606E+06    -4.19398E+06     132.962E+06     143.016E+06    -389.057E+03
             137     62.1141E-03     15.2782E-03     60.2059E-03     329.231E-03    -164.209E-03    -165.023E-03    -162.840E-03     327.862E-03    -165.023E-03     51.9087E-03     385.247E-03     141.362E+06     142.433E+06     132.122E+06    -3.80232E+06    -3.79974E+06     132.119E+06     142.433E+06    -192.913E+03
             138     63.4626E-03     15.2784E-03     61.5961E-03     329.344E-03    -164.324E-03    -165.020E-03    -162.946E-03     327.966E-03    -165.020E-03     52.0922E-03     385.268E-03     141.878E+06     142.894E+06     133.049E+06    -3.64952E+06    -3.64808E+06     133.048E+06     142.894E+06    -72.1906E+03
             139     64.8123E-03     15.2778E-03     62.9859E-03     329.539E-03    -164.519E-03    -165.020E-03    -163.115E-03     328.135E-03    -165.020E-03     52.6063E-03     385.465E-03     141.874E+06     142.038E+06     132.640E+06    -4.30140E+06    -4.29953E+06     132.638E+06     142.038E+06    -4.59502E+03
             140     66.1637E-03     15.2783E-03     64.3756E-03     329.513E-03    -164.499E-03    -165.015E-03    -163.104E-03     328.119E-03    -165.015E-03     52.4144E-03     385.488E-03     142.189E+06     142.426E+06     133.588E+06    -3.97493E+06    -3.97394E+06     133.587E+06     142.426E+06     317.887E+03
             141     67.5156E-03     15.2782E-03     65.7643E-03     329.350E-03    -164.337E-03    -165.013E-03    -162.973E-03     327.986E-03    -165.013E-03     51.8252E-03     385.401E-03     143.342E+06     143.127E+06     135.054E+06    -4.08132E+06    -4.08116E+06     135.054E+06     143.127E+06    -11.9466E+03
             142     68.8709E-03     15.2783E-03     67.1548E-03     329.401E-03    -164.387E-03    -165.014E-03    -163.005E-03     328.018E-03    -165.014E-03     52.1749E-03     385.551E-03     143.408E+06     142.972E+06     134.958E+06    -4.27443E+06    -4.27308E+06     134.956E+06     142.972E+06    -374.862E+03
             143     70.2261E-03     15.2781E-03     68.5440E-03     329.831E-03    -164.750E-03    -165.081E-03    -163.400E-03     328.408E-03    -165.008E-03     52.9816E-03     385.796E-03     143.023E+06     142.937E+06     134.768E+06    -3.99575E+06    -3.99448E+06     134.767E+06     142.937E+06    -273.420E+03
             144     71.5859E-03     15.2781E-03     69.9366E-03     329.908E-03    -164.824E-03    -165.084E-03    -163.479E-03     328.490E-03    -165.011E-03     52.8958E-03     385.862E-03     142.765E+06     142.772E+06     134.965E+06    -3.73543E+06    -3.73405E+06     134.964E+06     142.772E+06     331.890E+03
             145     72.9420E-03     15.2780E-03     71.3240E-03     329.418E-03    -164.401E-03    -165.017E-03    -163.007E-03     328.025E-03    -165.017E-03     52.3850E-03     385.557E-03     143.372E+06     142.227E+06     135.339E+06    -4.46427E+06    -4.46127E+06     135.336E+06     142.227E+06    -28.9817E+03
             146     74.3015E-03     15.2786E-03     72.7137E-03     329.359E-03    -164.347E-03    -165.012E-03    -162.944E-03     327.956E-03    -165.012E-03     52.5640E-03     385.429E-03     143.072E+06     142.630E+06     135.640E+06    -3.80817E+06    -3.80557E+06     135.637E+06     142.630E+06    -597.393E+03
             147     75.6638E-03     15.2780E-03     74.1052E-03     329.721E-03    -164.704E-03    -165.017E-03    -163.277E-03     328.294E-03    -165.017E-03     53.0380E-03     385.566E-03     142.883E+06     142.468E+06     135.483E+06    -3.77876E+06    -3.77289E+06     135.477E+06     142.468E+06     326.767E+03
             148     77.0247E-03     15.2777E-03     75.4943E-03     329.546E-03    -164.516E-03    -165.030E-03    -163.103E-03     328.134E-03    -165.030E-03     52.7513E-03     385.359E-03     142.894E+06     141.594E+06     135.390E+06    -4.30110E+06    -4.29615E+06     135.385E+06     141.594E+06     647.740E+03
             149     79.7493E-03     15.2786E-03     78.2720E-03     329.446E-03    -164.444E-03    -165.002E-03    -163.047E-03     328.049E-03    -165.002E-03     52.4633E-03     385.451E-03     142.471E+06     141.309E+06     135.543E+06    -3.95745E+06    -3.95648E+06     135.542E+06     141.309E+06    -351.013E+03
             150     81.1153E-03     15.2780E-03     79.6635E-03     329.673E-03    -164.669E-03    -165.005E-03    -163.290E-03     328.294E-03    -165.005E-03     52.1480E-03     385.795E-03     142.882E+06     141.035E+06     135.908E+06    -4.34058E+06    -4.33999E+06     135.908E+06     141.035E+06    -283.699E+03
             151     82.4785E-03     15.2781E-03     81.0512E-03     329.494E-03    -164.478E-03    -165.016E-03    -163.090E-03     328.106E-03    -165.016E-03     52.2938E-03     385.617E-03     142.874E+06     141.249E+06     136.523E+06    -3.92920E+06    -3.92682E+06     136.521E+06     141.249E+06     209.389E+03
             152     83.8471E-03     15.2781E-03     82.4434E-03     329.461E-03    -164.445E-03    -165.015E-03    -163.021E-03     328.037E-03    -165.015E-03     52.9610E-03     385.408E-03     143.281E+06     141.278E+06     136.828E+06    -4.17529E+06    -4.17327E+06     136.826E+06     141.278E+06     334.692E+03
             153     85.2124E-03     15.2782E-03     83.8315E-03     329.486E-03    -164.477E-03    -165.009E-03    -163.058E-03     328.067E-03    -165.009E-03     52.8617E-03     385.428E-03     142.757E+06     140.915E+06     136.354E+06    -4.06706E+06    -4.06642E+06     136.353E+06     140.915E+06    -246.958E+03
             154     86.5800E-03     15.2783E-03     85.2213E-03     329.448E-03    -164.439E-03    -165.008E-03    -163.056E-03     328.064E-03    -165.008E-03     52.1987E-03     385.398E-03     142.278E+06     140.562E+06     135.974E+06    -3.95415E+06    -3.95333E+06     135.973E+06     140.562E+06    -91.3311E+03
             155     87.9483E-03     15.2780E-03     86.6111E-03     329.490E-03    -164.478E-03    -165.012E-03    -163.094E-03     328.105E-03    -165.012E-03     52.2259E-03     385.390E-03     142.400E+06     140.261E+06     135.807E+06    -4.31320E+06    -4.31234E+06     135.807E+06     140.261E+06    -98.5921E+03
             156     89.3169E-03     15.2782E-03     88.0004E-03     329.487E-03    -164.478E-03    -165.009E-03    -163.089E-03     328.098E-03    -165.009E-03     52.3299E-03     385.462E-03     141.894E+06     140.299E+06     135.562E+06    -3.90436E+06    -3.90344E+06     135.561E+06     140.299E+06    -349.414E+03
             157     90.6868E-03     15.2783E-03     89.3906E-03     329.527E-03    -164.518E-03    -165.009E-03    -163.133E-03     328.142E-03    -165.009E-03     52.2423E-03     385.543E-03     141.861E+06     140.203E+06     135.359E+06    -4.01796E+06    -4.01770E+06     135.359E+06     140.203E+06    -118.026E+03
             158     92.0571E-03     15.2779E-03     90.7805E-03     329.549E-03    -164.531E-03    -165.019E-03    -163.138E-03     328.157E-03    -165.019E-03     52.3858E-03     385.466E-03     141.258E+06     139.714E+06     134.518E+06    -4.07037E+06    -4.07033E+06     134.518E+06     139.714E+06    -30.6044E+03
             159     93.4279E-03     15.2781E-03     92.1702E-03     329.410E-03    -164.389E-03    -165.021E-03    -162.979E-03     328.000E-03    -165.021E-03     52.6950E-03     385.382E-03     141.005E+06     139.556E+06     134.157E+06    -4.07070E+06    -4.06844E+06     134.155E+06     139.556E+06     345.426E+03
             160     94.7987E-03     15.2783E-03     93.5594E-03     329.329E-03    -164.312E-03    -165.017E-03    -162.924E-03     327.941E-03    -165.017E-03     52.2714E-03     385.288E-03     141.782E+06     140.063E+06     135.320E+06    -4.02977E+06    -4.02655E+06     135.316E+06     140.063E+06     128.578E+03
             161     96.1700E-03     15.2780E-03     94.9487E-03     329.418E-03    -164.403E-03    -165.015E-03    -163.008E-03     328.023E-03    -165.015E-03     52.4134E-03     385.206E-03     141.931E+06     140.334E+06     135.559E+06    -3.92280E+06    -3.92117E+06     135.557E+06     140.334E+06    -53.5654E+03
             162     97.5435E-03     15.2784E-03     96.3396E-03     329.421E-03    -164.412E-03    -165.009E-03    -162.994E-03     328.003E-03    -165.009E-03     52.8512E-03     385.162E-03     141.833E+06     140.651E+06     134.966E+06    -3.93858E+06    -3.93786E+06     134.966E+06     140.651E+06     285.746E+03
             163     98.9149E-03     15.2785E-03     97.7278E-03     329.167E-03    -164.166E-03    -165.002E-03    -162.765E-03     327.767E-03    -165.002E-03     52.4900E-03     385.035E-03     142.547E+06     141.166E+06     134.986E+06    -4.37044E+06    -4.36916E+06     134.985E+06     141.166E+06     364.180E+03
             164     100.288E-03     15.2790E-03     99.1170E-03     329.495E-03    -164.486E-03    -165.009E-03    -163.091E-03     328.078E-03    -164.987E-03     52.8494E-03     385.418E-03     143.551E+06     142.323E+06     136.067E+06    -4.25350E+06    -4.25230E+06     136.066E+06     142.323E+06     285.018E+03
             165     101.663E-03     15.2785E-03     100.509E-03     330.068E-03    -164.987E-03    -165.080E-03    -163.682E-03     328.670E-03    -164.987E-03     52.5422E-03     386.000E-03     143.498E+06     142.689E+06     136.510E+06    -3.79883E+06    -3.79855E+06     136.510E+06     142.689E+06     135.464E+03
             166     103.037E-03     15.2781E-03     101.898E-03     329.710E-03    -164.634E-03    -165.076E-03    -163.321E-03     328.326E-03    -165.005E-03     52.2462E-03     385.760E-03     143.736E+06     142.207E+06     136.584E+06    -4.25643E+06    -4.25475E+06     136.582E+06     142.207E+06     455.178E+03
             167     104.411E-03     15.2789E-03     103.287E-03     329.156E-03    -164.150E-03    -165.005E-03    -162.757E-03     327.762E-03    -165.005E-03     52.3628E-03     385.268E-03     144.478E+06     142.945E+06     138.349E+06    -3.77585E+06    -3.77372E+06     138.347E+06     142.945E+06     543.277E+03
             168     105.786E-03     15.2787E-03     104.677E-03     329.361E-03    -164.366E-03    -164.996E-03    -162.964E-03     327.960E-03    -164.996E-03     52.5366E-03     385.450E-03     146.663E+06     144.068E+06     140.971E+06    -4.11525E+06    -4.11383E+06     140.970E+06     144.068E+06     453.498E+03
             169     107.161E-03     15.2787E-03     106.067E-03     329.781E-03    -164.795E-03    -164.986E-03    -163.353E-03     328.339E-03    -164.986E-03     53.3441E-03     385.646E-03     148.070E+06     145.111E+06     142.448E+06    -4.27136E+06    -4.26711E+06     142.444E+06     145.111E+06     734.052E+03
             170     108.540E-03     15.2791E-03     107.459E-03     329.427E-03    -164.435E-03    -164.992E-03    -163.005E-03     327.997E-03    -164.992E-03     53.0727E-03     385.224E-03     149.006E+06     146.505E+06     143.668E+06    -3.89886E+06    -3.89248E+06     143.661E+06     146.505E+06     968.669E+03
             171     109.912E-03     15.2789E-03     108.845E-03     328.914E-03    -163.919E-03    -164.995E-03    -162.527E-03     327.521E-03    -164.995E-03     52.3224E-03     384.880E-03     150.797E+06     147.778E+06     145.140E+06    -4.32064E+06    -4.31502E+06     145.134E+06     147.778E+06     916.397E+03
             172     111.288E-03     15.2799E-03     110.234E-03     329.118E-03    -164.153E-03    -164.964E-03    -162.761E-03     327.725E-03    -164.964E-03     52.3438E-03     385.079E-03     152.136E+06     149.108E+06     146.472E+06    -4.32865E+06    -4.32570E+06     146.469E+06     149.108E+06     567.451E+03
             173     112.667E-03     15.2798E-03     111.626E-03     329.573E-03    -164.639E-03    -164.934E-03    -163.209E-03     328.144E-03    -164.934E-03     53.0800E-03     385.440E-03     153.779E+06     150.508E+06     148.664E+06    -4.18429E+06    -4.18331E+06     148.663E+06     150.508E+06     361.336E+03
             174     114.043E-03     15.2803E-03     113.015E-03     329.388E-03    -164.466E-03    -164.923E-03    -163.059E-03     327.981E-03    -164.923E-03     52.6375E-03     385.267E-03     155.181E+06     151.826E+06     151.106E+06    -3.71260E+06    -3.70819E+06     151.101E+06     151.826E+06     780.035E+03
             175     115.419E-03     15.2806E-03     114.403E-03     328.997E-03    -164.093E-03    -164.905E-03    -162.701E-03     327.606E-03    -164.905E-03     52.3097E-03     385.067E-03     158.207E+06     154.125E+06     153.397E+06    -4.44362E+06    -4.43433E+06     154.088E+06     153.424E+06     1.20636E+06
             176     116.797E-03     15.2815E-03     115.793E-03     329.083E-03    -164.221E-03    -164.862E-03    -162.801E-03     327.663E-03    -164.862E-03     52.8602E-03     385.050E-03     160.401E+06     156.795E+06     154.501E+06    -4.73851E+06    -4.73281E+06     156.790E+06     154.501E+06     710.565E+03
             177     118.175E-03     15.2819E-03     117.183E-03     329.286E-03    -164.474E-03    -164.813E-03    -163.050E-03     327.863E-03    -164.813E-03     52.9457E-03     385.197E-03     161.655E+06     159.455E+06     156.156E+06    -3.82366E+06    -3.81311E+06     159.445E+06     156.156E+06     963.885E+03
             178     119.552E-03     15.2829E-03     118.571E-03     329.309E-03    -164.539E-03    -164.769E-03    -163.145E-03     327.914E-03    -164.769E-03     52.4093E-03     385.393E-03     165.415E+06     162.898E+06     158.123E+06    -4.84951E+06    -4.83897E+06     162.887E+06     158.123E+06     964.760E+03
             179     120.932E-03     15.2833E-03     119.963E-03     329.189E-03    -164.464E-03    -164.726E-03    -163.040E-03     327.766E-03    -164.726E-03     52.9251E-03     385.309E-03     166.371E+06     164.932E+06     158.797E+06    -4.42147E+06    -4.41915E+06     164.930E+06     158.797E+06     474.128E+03
             180     122.310E-03     15.2844E-03     121.352E-03     329.386E-03    -164.544E-03    -164.843E-03    -163.263E-03     327.938E-03    -164.676E-03     53.4101E-03     385.557E-03     167.293E+06     165.384E+06     159.762E+06    -4.64846E+06    -4.64613E+06     165.381E+06     159.762E+06     386.632E+03
             181     123.689E-03     15.2847E-03     122.741E-03     328.965E-03    -164.173E-03    -164.792E-03    -162.931E-03     327.556E-03    -164.625E-03     52.6593E-03     385.067E-03     168.754E+06     167.034E+06     162.098E+06    -4.13340E+06    -4.13029E+06     167.031E+06     162.098E+06     459.261E+03
             182     125.068E-03     15.2872E-03     124.130E-03     327.694E-03    -163.175E-03    -164.520E-03    -161.694E-03     326.214E-03    -164.520E-03     53.8198E-03     383.660E-03     169.760E+06     168.492E+06     161.927E+06    -4.44892E+06    -4.43855E+06     168.482E+06     161.927E+06     1.31287E+06
             183     126.442E-03     15.2903E-03     125.514E-03     326.670E-03    -162.348E-03    -164.322E-03    -160.833E-03     325.155E-03    -164.322E-03     54.3483E-03     382.596E-03     172.259E+06     171.382E+06     163.200E+06    -4.82243E+06    -4.81425E+06     171.373E+06     163.200E+06     1.08266E+06
             184     127.819E-03     15.2950E-03     126.901E-03     326.624E-03    -162.567E-03    -164.056E-03    -161.017E-03     325.073E-03    -164.056E-03     54.9831E-03     382.550E-03     174.923E+06     174.742E+06     166.468E+06    -4.17116E+06    -4.16080E+06     174.731E+06     166.468E+06     1.20856E+06
             185     129.196E-03     15.2988E-03     128.287E-03     328.102E-03    -163.362E-03    -164.740E-03    -162.809E-03     326.578E-03    -163.769E-03     54.6775E-03     384.073E-03     176.939E+06     174.535E+06     167.543E+06    -5.79124E+06    -5.77180E+06     174.516E+06     167.543E+06    -16.0049E+03
             186     130.576E-03     15.3011E-03     129.677E-03     330.431E-03    -163.517E-03    -166.914E-03    -165.414E-03     328.931E-03    -163.517E-03     54.5314E-03     386.441E-03     174.049E+06     172.331E+06     167.219E+06    -4.21747E+06    -4.20533E+06     172.319E+06     167.219E+06    -509.233E+03
             187     131.963E-03     15.3034E-03     131.072E-03     332.988E-03    -163.316E-03    -169.671E-03    -168.093E-03     331.409E-03    -163.316E-03     56.2484E-03     388.617E-03     174.902E+06     171.934E+06     169.494E+06    -4.16281E+06    -4.15447E+06     171.882E+06     169.538E+06     1.17494E+06
             188     133.350E-03     15.3051E-03     132.469E-03     335.925E-03    -163.152E-03    -172.773E-03    -171.202E-03     334.354E-03    -163.152E-03     56.4524E-03     391.172E-03     179.248E+06     173.453E+06     170.590E+06    -7.19305E+06    -7.15322E+06     170.550E+06     173.453E+06    -989.508E+03
             189     134.742E-03     15.3059E-03     133.870E-03     339.543E-03    -162.973E-03    -176.570E-03    -174.989E-03     337.962E-03    -162.973E-03     57.0471E-03     394.426E-03     170.414E+06     169.248E+06     161.897E+06    -4.71264E+06    -4.64383E+06     161.828E+06     169.248E+06    -3.38213E+06
             190     136.143E-03     15.3066E-03     135.280E-03     343.471E-03    -162.803E-03    -180.668E-03    -179.013E-03     341.816E-03    -162.803E-03     58.8051E-03     397.614E-03     161.175E+06     162.385E+06     151.350E+06    -4.01533E+06    -3.97495E+06     151.309E+06     162.385E+06     -2.2898E+06
             191     137.545E-03     15.3071E-03     136.691E-03     348.012E-03    -162.665E-03    -185.347E-03    -183.625E-03     346.290E-03    -162.665E-03     60.5154E-03     401.322E-03     159.475E+06     162.990E+06     145.166E+06    -4.58491E+06    -4.57624E+06     145.158E+06     162.990E+06    -1.13559E+06
             192     138.957E-03     15.3072E-03     138.111E-03     353.019E-03    -162.523E-03    -190.497E-03    -188.753E-03     351.276E-03    -162.523E-03     61.4666E-03     405.309E-03     157.470E+06     162.318E+06     140.300E+06    -5.00142E+06    -4.98154E+06     140.280E+06     162.318E+06    -1.59514E+06
             193     140.376E-03     15.3072E-03     139.539E-03     356.990E-03    -162.409E-03    -194.582E-03    -192.848E-03     355.256E-03    -162.409E-03     61.7514E-03     408.188E-03     153.621E+06     159.672E+06     133.958E+06    -5.11745E+06    -5.09099E+06     133.932E+06     159.672E+06    -1.90917E+06
             194     141.796E-03     15.3074E-03     140.967E-03     360.517E-03    -162.323E-03    -198.195E-03    -196.458E-03     358.781E-03    -162.323E-03     62.2074E-03     410.453E-03     149.581E+06     156.986E+06     122.168E+06    -6.87559E+06    -6.52823E+06     121.821E+06     156.986E+06    -5.41618E+06
             195     143.226E-03     15.3071E-03     142.406E-03     363.960E-03    -162.214E-03    -201.746E-03    -200.009E-03     362.223E-03    -162.214E-03     62.5938E-03     412.496E-03     133.861E+06     147.341E+06     101.295E+06    -2.98732E+06    -2.56776E+06     100.876E+06     147.341E+06    -6.44059E+06
             196     144.656E-03     15.3071E-03     143.844E-03     365.846E-03    -162.142E-03    -203.704E-03    -202.067E-03     364.209E-03    -162.142E-03     60.9625E-03     413.141E-03     124.235E+06     138.334E+06     80.1193E+06    -4.29115E+06    -4.03378E+06     79.8619E+06     138.334E+06     -4.5849E+06
             197     146.085E-03     15.3077E-03     145.281E-03     366.967E-03    -162.110E-03    -204.858E-03    -203.284E-03     365.394E-03    -162.110E-03     59.9049E-03     413.026E-03     126.487E+06     141.906E+06     64.9334E+06    -2.86371E+06    -2.68820E+06     64.7579E+06     141.906E+06    -2.84183E+06
             198     147.524E-03     15.3090E-03     146.728E-03     369.040E-03    -162.029E-03    -207.011E-03    -205.491E-03     367.520E-03    -162.029E-03     59.0730E-03     413.923E-03     131.318E+06     146.201E+06     56.0521E+06    -4.25154E+06    -4.14176E+06     55.9424E+06     146.201E+06    -2.06986E+06
             199     148.956E-03     15.3092E-03     148.167E-03     369.400E-03    -161.953E-03    -207.447E-03    -206.166E-03     368.120E-03    -161.953E-03     54.1805E-03     412.554E-03     136.056E+06     148.144E+06     46.7669E+06    -5.16604E+06    -4.97324E+06     46.5741E+06     148.144E+06    -3.13294E+06
             200     150.395E-03     15.3120E-03     149.614E-03     363.622E-03    -161.999E-03    -201.623E-03    -200.642E-03     362.641E-03    -161.999E-03     46.9694E-03     403.128E-03     138.585E+06     152.793E+06     39.6391E+06    -1.58359E+06    -1.43272E+06     39.4883E+06     152.793E+06    -2.45627E+06
             201     151.811E-03     15.3136E-03     151.037E-03     353.175E-03    -162.115E-03    -191.060E-03    -190.294E-03     352.409E-03    -162.115E-03     40.7889E-03     388.516E-03     133.582E+06     151.651E+06     42.1160E+06     3.08349E+06     3.68852E+06     41.5110E+06     151.651E+06     1.38392E+06
             202     153.222E-03     15.3155E-03     152.455E-03     309.436E-03    -134.718E-03    -174.718E-03    -145.926E-03     309.043E-03    -163.117E-03     12.8643E-03     351.093E-03     104.716E+06     110.292E+06     40.6401E+06    -6.14868E+06    -4.06310E+06     38.5545E+06     110.292E+06    -4.27778E+06
             203     154.358E-03     14.3546E-03     153.689E-03     269.209E-03    -103.479E-03    -165.731E-03    -102.796E-03     268.527E-03    -165.731E-03    -27.6997E-03     318.362E-03     100.340E+06     78.9054E+06     13.9422E+06    -33.1595E+06    -18.5500E+06    -667.318E+03     78.9054E+06    -10.8992E+06
             204     154.104E-03     13.4275E-03     153.518E-03     266.639E-03    -97.4890E-03    -169.150E-03    -94.9924E-03     264.142E-03    -169.150E-03    -58.0167E-03     311.016E-03     116.963E+06     105.688E+06    -538.227E+03    -19.0529E+06    -5.43848E+06    -14.1526E+06     105.688E+06    -5.37060E+06
             205     153.824E-03     12.5205E-03     153.313E-03     267.157E-03    -94.3610E-03    -172.796E-03    -89.1837E-03     261.979E-03    -172.796E-03    -85.0189E-03     303.824E-03     127.996E+06     130.045E+06     8.17998E+06    -3.27897E+06     2.44242E+06     2.45859E+06     130.045E+06    -4.66754E+06
             206     153.546E-03     11.6174E-03     153.106E-03     273.878E-03    -97.2956E-03    -176.583E-03    -89.5801E-03     266.163E-03    -176.583E-03    -105.725E-03     304.408E-03     135.626E+06     137.071E+06     9.93898E+06    -5.68750E+06     6.92198E+06    -2.67050E+06     137.071E+06    -5.95234E+06
             207     153.270E-03     10.7341E-03     152.894E-03     285.926E-03    -105.651E-03    -180.275E-03    -95.8480E-03     276.123E-03    -180.275E-03    -122.265E-03     311.529E-03     137.481E+06     140.559E+06     12.6933E+06    -4.85126E+06     11.0555E+06    -3.21346E+06     140.559E+06    -5.05485E+06
             208     153.002E-03     9.85882E-03     152.684E-03     299.544E-03    -115.841E-03    -183.703E-03    -104.170E-03     287.873E-03    -183.703E-03    -137.254E-03     320.883E-03     138.827E+06     143.381E+06     15.4305E+06    -4.21835E+06     13.3675E+06    -2.15544E+06     143.381E+06    -5.93295E+06
             209     152.746E-03     8.99575E-03     152.481E-03     313.979E-03    -127.243E-03    -186.736E-03    -114.384E-03     301.120E-03    -186.736E-03    -148.440E-03     331.589E-03     138.183E+06     142.650E+06     17.1609E+06    -5.42703E+06     14.6601E+06    -2.92622E+06     142.650E+06    -7.04229E+06
             210     152.499E-03     8.14760E-03     152.281E-03     328.251E-03    -138.952E-03    -189.299E-03    -125.508E-03     314.807E-03    -189.299E-03    -156.208E-03     342.519E-03     135.654E+06     140.324E+06     19.4231E+06    -6.35904E+06     15.9456E+06    -2.88149E+06     140.324E+06    -8.65684E+06
             211     152.275E-03     7.30612E-03     152.100E-03     341.601E-03    -150.206E-03    -191.395E-03    -136.721E-03     328.116E-03    -191.395E-03    -160.592E-03     353.066E-03     132.807E+06     138.893E+06     23.6840E+06    -6.32816E+06     18.8015E+06    -1.44563E+06     138.893E+06    -11.0683E+06
             212     152.062E-03     6.47721E-03     151.924E-03     353.107E-03    -160.097E-03    -193.010E-03    -147.429E-03     340.439E-03    -193.010E-03    -159.168E-03     362.286E-03     128.792E+06     135.964E+06     28.2780E+06    -6.66038E+06     23.8549E+06    -2.23727E+06     135.964E+06    -11.5465E+06
             213     151.871E-03     5.65061E-03     151.766E-03     364.121E-03    -170.064E-03    -194.056E-03    -158.558E-03     352.614E-03    -194.056E-03    -155.005E-03     371.444E-03     122.488E+06     130.081E+06     33.5865E+06    -7.60393E+06     29.3129E+06    -3.33028E+06     130.081E+06    -12.5606E+06
             214     151.700E-03     4.83839E-03     151.623E-03     372.576E-03    -178.006E-03    -194.570E-03    -168.211E-03     362.781E-03    -194.570E-03    -145.262E-03     378.639E-03     114.100E+06     122.843E+06     41.1054E+06    -7.36646E+06     36.2226E+06    -2.48371E+06     122.843E+06    -14.5870E+06
             215     151.553E-03     4.02735E-03     151.499E-03     378.338E-03    -183.563E-03    -194.775E-03    -176.022E-03     370.798E-03    -194.775E-03    -128.888E-03     383.646E-03     107.485E+06     114.708E+06     48.9445E+06    -9.06682E+06     44.7128E+06    -4.83515E+06     114.708E+06    -14.8756E+06
             216     151.436E-03     3.21956E-03     151.402E-03     382.879E-03    -188.160E-03    -194.719E-03    -182.898E-03     377.617E-03    -194.719E-03    -108.400E-03     387.791E-03     98.8581E+06     104.595E+06     55.8683E+06    -8.99329E+06     52.7468E+06    -5.87174E+06     104.595E+06    -13.8662E+06
             217     151.334E-03     2.41338E-03     151.315E-03     384.867E-03    -190.329E-03    -194.538E-03    -187.056E-03     381.594E-03    -194.538E-03    -85.8137E-03     389.659E-03     90.4722E+06     93.3841E+06     63.2959E+06    -7.92184E+06     60.6748E+06    -5.30077E+06     93.3841E+06    -13.3544E+06
             218     151.266E-03     1.60539E-03     151.257E-03     386.143E-03    -191.496E-03    -194.647E-03    -189.724E-03     384.371E-03    -194.647E-03    -62.6421E-03     391.025E-03     86.6459E+06     83.5892E+06     70.2140E+06    -8.75209E+06     68.4175E+06    -6.95556E+06     83.5892E+06    -11.5819E+06
             219     151.214E-03     797.651E-06     151.212E-03     388.697E-03    -193.283E-03    -195.414E-03    -193.390E-03     388.009E-03    -194.619E-03    -37.9893E-03     393.686E-03     89.2893E+06     78.5481E+06     73.7760E+06    -13.0211E+06     72.5037E+06    -11.7488E+06     78.5481E+06    -10.4306E+06
             220     149.716E-03    -3.38184E-06     149.716E-03     345.840E-03    -172.362E-03    -173.478E-03    -173.013E-03     345.695E-03    -172.682E-03    -14.8156E-03     348.890E-03     60.5599E+06     22.9035E+06     15.4280E+06    -40.4150E+06     18.0367E+06    -37.2849E+06     17.1647E+06    -11.1297E+06
             221     148.370E-03     2.98351E-06     148.370E-03     278.269E-03    -138.725E-03    -139.544E-03    -139.218E-03     278.263E-03    -139.045E-03    -845.297E-06     278.826E-03     31.8936E+06    -75.9049E+06    -98.7359E+06    -110.846E+06    -97.2941E+06    -89.4567E+06    -98.7359E+06    -9.26072E+06
             222     147.081E-03    -2.03553E-06     147.081E-03     242.089E-03    -120.547E-03    -121.542E-03    -121.036E-03     242.079E-03    -121.043E-03     3.49391E-03     242.136E-03     62.3958E+06    -142.285E+06    -202.592E+06    -206.479E+06    -204.319E+06    -144.444E+06    -202.592E+06    -11.5716E+06
             223     145.825E-03     1.14858E-06     145.825E-03     223.108E-03    -111.248E-03    -111.861E-03    -111.324E-03     223.068E-03    -111.743E-03     6.95862E-03     223.139E-03     108.488E+06    -192.202E+06    -298.826E+06    -302.463E+06    -298.549E+06    -193.839E+06    -301.102E+06    -11.2597E+06
             224     144.582E-03    -1.05001E-06     144.582E-03     216.554E-03    -107.967E-03    -108.587E-03    -108.009E-03     216.478E-03    -108.470E-03     9.88018E-03     216.569E-03     106.636E+06    -231.149E+06    -335.413E+06    -340.001E+06    -337.397E+06    -231.476E+06    -337.689E+06    -5.88731E+06
             225     143.343E-03     66.3806E-09     143.343E-03     219.322E-03    -109.139E-03    -110.182E-03    -109.586E-03     219.228E-03    -109.642E-03     11.0576E-03     219.337E-03     43.8258E+06    -247.431E+06    -289.990E+06    -292.422E+06    -290.460E+06    -249.273E+06    -290.110E+06    -2.73544E+06
             226     142.094E-03     755.448E-09     142.094E-03     228.761E-03    -114.025E-03    -114.736E-03    -114.634E-03     228.659E-03    -114.025E-03     11.8271E-03     228.781E-03     27.5253E+06    -222.332E+06    -224.785E+06    -250.280E+06    -222.616E+06    -249.875E+06    -224.904E+06     2.46999E+06
             227     140.832E-03    -579.245E-09     140.832E-03     242.685E-03    -121.104E-03    -121.581E-03    -121.479E-03     242.583E-03    -121.104E-03     12.1778E-03     242.708E-03     62.2422E+06    -174.585E+06    -180.785E+06    -239.612E+06    -180.306E+06    -239.342E+06    -175.333E+06     2.42280E+06
             228     139.547E-03     1.07540E-06     139.547E-03     258.363E-03    -128.907E-03    -129.456E-03    -129.125E-03     258.274E-03    -129.149E-03     11.7573E-03     258.392E-03     76.1104E+06    -157.424E+06    -169.000E+06    -238.659E+06    -162.971E+06    -238.564E+06    -163.548E+06    -2.20487E+06
             229     138.244E-03    -1.65924E-06     138.244E-03     273.495E-03    -136.472E-03    -137.023E-03    -136.396E-03     273.419E-03    -137.023E-03     11.1814E-03     273.549E-03     86.6130E+06    -155.426E+06    -165.345E+06    -246.527E+06    -159.317E+06    -246.431E+06    -161.550E+06    -1.66838E+06
             230     136.920E-03     1.08565E-06     136.920E-03     286.712E-03    -143.012E-03    -143.700E-03    -143.337E-03     286.659E-03    -143.322E-03     9.32723E-03     286.779E-03     100.632E+06    -155.128E+06    -161.234E+06    -258.661E+06    -159.216E+06    -258.368E+06    -157.440E+06    -3.65555E+06
             231     135.584E-03    -492.312E-09     135.584E-03     296.675E-03    -148.022E-03    -148.652E-03    -148.364E-03     296.638E-03    -148.274E-03     8.09556E-03     296.764E-03     113.966E+06    -161.884E+06    -165.076E+06    -277.404E+06    -162.175E+06    -277.113E+06    -165.076E+06    -3.82960E+06
             232     134.231E-03     6.04685E-09     134.231E-03     304.406E-03    -151.816E-03    -152.589E-03    -152.305E-03     304.373E-03    -152.068E-03     7.56552E-03     304.543E-03     119.153E+06    -167.120E+06    -169.233E+06    -287.315E+06    -168.359E+06    -287.309E+06    -168.001E+06    -436.206E+03
             233     132.873E-03     879.793E-09     132.873E-03     308.855E-03    -153.577E-03    -155.277E-03    -155.257E-03     308.834E-03    -153.577E-03     6.13533E-03     309.003E-03     120.763E+06    -174.417E+06    -176.134E+06    -296.028E+06    -175.757E+06    -295.921E+06    -174.902E+06    -3.09498E+06
             234     131.511E-03     1.11759E-06     131.511E-03     309.906E-03    -154.276E-03    -155.630E-03    -155.440E-03     309.891E-03    -154.451E-03     5.30072E-03     310.061E-03     127.047E+06    -178.528E+06    -181.051E+06    -306.812E+06    -178.636E+06    -306.703E+06    -181.051E+06    -1.83977E+06
             235     130.151E-03    -1.45022E-06     130.151E-03     311.103E-03    -155.248E-03    -155.854E-03    -155.670E-03     311.094E-03    -155.423E-03     4.07469E-03     311.277E-03     132.830E+06    -181.729E+06    -186.965E+06    -317.096E+06    -185.174E+06    -316.847E+06    -183.767E+06    -3.31959E+06
             236     128.785E-03     2.22626E-06     128.785E-03     313.978E-03    -156.577E-03    -157.402E-03    -157.392E-03     313.968E-03    -156.577E-03     4.26863E-03     314.158E-03     141.344E+06    -186.796E+06    -193.908E+06    -331.562E+06    -190.247E+06    -331.309E+06    -190.711E+06    -3.05199E+06
             237     127.415E-03    -1.60857E-06     127.415E-03     317.217E-03    -157.554E-03    -159.664E-03    -157.937E-03     317.206E-03    -159.270E-03     4.52876E-03     317.418E-03     154.055E+06    -187.234E+06    -194.619E+06    -344.847E+06    -190.808E+06    -344.744E+06    -191.149E+06    -1.74077E+06
             238     126.042E-03    -1.27859E-06     126.042E-03     320.640E-03    -158.360E-03    -162.280E-03    -160.560E-03     320.636E-03    -160.076E-03     2.51568E-03     320.844E-03     159.318E+06    -191.689E+06    -199.070E+06    -354.569E+06    -195.271E+06    -354.457E+06    -195.600E+06    -1.39486E+06
             239     124.662E-03     4.98897E-06     124.662E-03     323.031E-03    -160.198E-03    -162.833E-03    -162.826E-03     323.023E-03    -160.198E-03     3.16901E-03     323.231E-03     158.689E+06    -195.382E+06    -203.335E+06    -357.898E+06    -199.490E+06    -357.833E+06    -199.292E+06    -586.969E+03
             240     123.282E-03    -4.21826E-06     123.282E-03     323.649E-03    -161.210E-03    -162.439E-03    -161.635E-03     323.642E-03    -162.008E-03     2.71932E-03     323.867E-03     163.308E+06    -197.516E+06    -205.386E+06    -364.616E+06    -201.604E+06    -364.571E+06    -201.343E+06    -2.02712E+06
             241     121.901E-03     2.82106E-06     121.901E-03     325.320E-03    -161.060E-03    -164.260E-03    -163.460E-03     325.318E-03    -161.857E-03     1.47457E-03     325.529E-03     169.072E+06    -197.786E+06    -204.542E+06    -370.132E+06    -200.715E+06    -370.131E+06    -201.613E+06    -11.1215E+03
             242     120.517E-03     1.29479E-06     120.517E-03     327.142E-03    -162.045E-03    -165.097E-03    -165.094E-03     327.139E-03    -162.045E-03     2.22260E-03     327.356E-03     176.858E+06    -197.424E+06    -203.009E+06    -377.008E+06    -200.447E+06    -376.913E+06    -200.081E+06    -2.81489E+06
             243     119.130E-03    -217.460E-09     119.130E-03     327.309E-03    -162.519E-03    -164.790E-03    -163.166E-03     327.307E-03    -164.141E-03     2.16512E-03     327.530E-03     185.612E+06    -198.016E+06    -200.961E+06    -385.071E+06    -198.456E+06    -384.919E+06    -200.673E+06    -637.119E+03
             244     117.745E-03    -2.53157E-06     117.745E-03     327.515E-03    -162.727E-03    -164.788E-03    -163.164E-03     327.513E-03    -164.349E-03     919.192E-06     327.723E-03     187.454E+06    -194.281E+06    -196.294E+06    -382.729E+06    -196.355E+06    -382.668E+06    -194.281E+06     1.79191E+06
             245     116.359E-03     3.29992E-06     116.359E-03     328.275E-03    -162.947E-03    -165.328E-03    -165.326E-03     328.273E-03    -162.947E-03     1.16056E-03     328.485E-03     190.806E+06    -189.885E+06    -194.026E+06    -382.727E+06    -191.627E+06    -382.710E+06    -192.301E+06    -1.70060E+06
             246     114.970E-03    -30.0460E-09     114.970E-03     329.370E-03    -163.315E-03    -166.055E-03    -165.252E-03     329.365E-03    -164.113E-03     2.89457E-03     329.623E-03     194.753E+06    -189.193E+06    -192.990E+06    -385.815E+06    -190.599E+06    -385.789E+06    -191.609E+06    -98.0329E+03
             247     113.583E-03    -1.30483E-06     113.583E-03     330.047E-03    -164.346E-03    -165.701E-03    -164.900E-03     330.045E-03    -165.144E-03     908.389E-06     330.327E-03     196.029E+06    -187.044E+06    -188.900E+06    -383.992E+06    -188.437E+06    -383.981E+06    -187.519E+06     1.09652E+06
             248     112.191E-03     2.24884E-06     112.191E-03     328.905E-03    -164.156E-03    -164.749E-03    -164.746E-03     328.902E-03    -164.156E-03     1.14864E-03     329.210E-03     195.718E+06    -186.096E+06    -186.623E+06    -382.077E+06    -186.149E+06    -382.075E+06    -186.571E+06     396.334E+03
             249     110.806E-03    -2.18737E-06     110.806E-03     328.372E-03    -163.956E-03    -164.416E-03    -164.413E-03     328.369E-03    -163.956E-03     1.34301E-03     328.654E-03     194.971E+06    -184.994E+06    -185.258E+06    -380.097E+06    -185.047E+06    -380.095E+06    -185.207E+06     467.773E+03
             250     109.419E-03     2.90651E-06     109.419E-03     329.646E-03    -164.107E-03    -165.538E-03    -165.535E-03     329.643E-03    -164.107E-03     1.34075E-03     329.965E-03     193.174E+06    -185.853E+06    -186.438E+06    -379.318E+06    -186.230E+06    -379.313E+06    -186.065E+06    -577.311E+03
             251     108.026E-03    -1.19306E-06     108.026E-03     329.775E-03    -164.271E-03    -165.505E-03    -165.275E-03     329.772E-03    -164.497E-03     1.28478E-03     330.117E-03     193.809E+06    -184.728E+06    -186.260E+06    -379.297E+06    -185.126E+06    -379.272E+06    -185.887E+06     752.889E+03
             252     106.642E-03     799.621E-09     106.642E-03     329.809E-03    -164.415E-03    -165.394E-03    -165.165E-03     329.807E-03    -164.642E-03     1.18509E-03     330.079E-03     194.958E+06    -179.140E+06    -182.309E+06    -375.662E+06    -181.171E+06    -375.640E+06    -180.300E+06     1.03610E+06
             253     105.247E-03     502.106E-09     105.247E-03     330.894E-03    -164.669E-03    -166.225E-03    -166.222E-03     330.891E-03    -164.669E-03     2.29955E-03     331.144E-03     191.276E+06    -179.919E+06    -185.026E+06    -373.695E+06    -181.930E+06    -373.694E+06    -183.017E+06    -396.095E+03
             254     103.859E-03     829.215E-09     103.859E-03     330.193E-03    -164.475E-03    -165.718E-03    -165.278E-03     330.192E-03    -164.914E-03     1.53052E-03     330.440E-03     191.283E+06    -178.354E+06    -185.812E+06    -373.254E+06    -182.716E+06    -373.252E+06    -181.451E+06     338.988E+03
             255     102.470E-03    -1.51988E-06     102.470E-03     328.986E-03    -163.944E-03    -165.042E-03    -163.944E-03     328.985E-03    -165.042E-03     914.177E-06     329.230E-03     190.735E+06    -178.684E+06    -188.801E+06    -374.272E+06    -183.063E+06    -374.253E+06    -184.440E+06    -970.472E+03
             256     101.084E-03     341.086E-09     101.084E-03     329.815E-03    -164.042E-03    -165.773E-03    -165.114E-03     329.815E-03    -164.701E-03     666.675E-06     330.055E-03     190.105E+06    -178.307E+06    -188.597E+06    -373.345E+06    -182.909E+06    -373.277E+06    -184.064E+06     867.526E+03
             257     99.6906E-03     1.53512E-06     99.6906E-03     330.577E-03    -164.734E-03    -165.843E-03    -165.804E-03     330.575E-03    -164.771E-03     1.85597E-03     330.800E-03     188.394E+06    -180.359E+06    -186.793E+06    -371.875E+06    -185.017E+06    -371.750E+06    -182.260E+06    -444.591E+03
             258     98.3008E-03    -1.61769E-06     98.3008E-03     330.200E-03    -164.522E-03    -165.678E-03    -165.639E-03     330.197E-03    -164.558E-03     598.046E-06     330.415E-03     187.639E+06    -184.069E+06    -186.880E+06    -373.096E+06    -184.210E+06    -372.955E+06    -186.880E+06    -91.7835E+03
             259     96.9149E-03     3.50799E-06     96.9149E-03     330.456E-03    -163.705E-03    -166.751E-03    -166.748E-03     330.453E-03    -163.705E-03     742.597E-06     330.675E-03     185.713E+06    -181.404E+06    -183.603E+06    -368.206E+06    -182.767E+06    -368.131E+06    -182.315E+06     1.67858E+06
             260     95.5185E-03    -224.568E-09     95.5185E-03     330.066E-03    -163.274E-03    -166.792E-03    -165.196E-03     330.062E-03    -164.866E-03     2.58689E-03     330.276E-03     184.540E+06    -181.772E+06    -184.968E+06    -367.889E+06    -183.079E+06    -367.869E+06    -183.681E+06    -1.91573E+06
             261     94.1326E-03    -2.49483E-06     94.1326E-03     329.284E-03    -163.781E-03    -165.503E-03    -163.780E-03     329.282E-03    -165.503E-03     1.23717E-03     329.498E-03     186.178E+06    -182.247E+06    -185.641E+06    -370.098E+06    -183.784E+06    -370.046E+06    -184.155E+06     859.571E+03
             262     92.7460E-03     2.29637E-06     92.7460E-03     330.368E-03    -164.905E-03    -165.463E-03    -165.331E-03     330.366E-03    -165.035E-03     1.39818E-03     330.584E-03     183.365E+06    -183.363E+06    -185.569E+06    -367.820E+06    -184.929E+06    -367.739E+06    -184.083E+06     10.7679E+03
             263     91.3508E-03    -1.57528E-06     91.3508E-03     330.903E-03    -165.166E-03    -165.737E-03    -165.736E-03     330.901E-03    -165.166E-03     958.736E-06     331.110E-03     183.753E+06    -183.803E+06    -185.443E+06    -368.370E+06    -184.783E+06    -368.309E+06    -184.523E+06    -524.377E+03
             264     89.9653E-03     1.83431E-06     89.9653E-03     330.508E-03    -164.683E-03    -165.825E-03    -165.824E-03     330.507E-03    -164.683E-03     759.830E-06     330.713E-03     182.617E+06    -183.026E+06    -185.220E+06    -366.730E+06    -183.968E+06    -366.707E+06    -184.301E+06     969.786E+03
             265     88.5699E-03    -149.975E-09     88.5699E-03     329.158E-03    -163.925E-03    -165.233E-03    -164.923E-03     329.157E-03    -164.235E-03     1.35791E-03     329.361E-03     180.714E+06    -182.577E+06    -185.943E+06    -364.949E+06    -184.673E+06    -364.945E+06    -183.851E+06     83.2716E+03
             266     87.1858E-03    -345.587E-09     87.1858E-03     328.533E-03    -163.985E-03    -164.549E-03    -164.236E-03     328.531E-03    -164.294E-03     1.93651E-03     328.727E-03     182.756E+06    -180.330E+06    -185.576E+06    -365.651E+06    -182.425E+06    -365.647E+06    -183.485E+06     230.053E+03
             267     85.7984E-03     744.323E-09     85.7984E-03     330.636E-03    -164.990E-03    -165.646E-03    -165.643E-03     330.633E-03    -164.990E-03     1.97190E-03     330.845E-03     181.046E+06    -181.537E+06    -187.567E+06    -365.523E+06    -184.414E+06    -365.522E+06    -184.692E+06    -81.6052E+03
             268     84.4036E-03    -25.3302E-09     84.4036E-03     331.530E-03    -164.984E-03    -166.547E-03    -166.546E-03     331.530E-03    -164.984E-03     793.424E-06     331.743E-03     181.344E+06    -182.399E+06    -186.791E+06    -365.896E+06    -185.275E+06    -365.895E+06    -183.916E+06     154.587E+03
             269     83.0157E-03     1.98160E-06     83.0157E-03     330.159E-03    -163.880E-03    -166.280E-03    -165.040E-03     330.159E-03    -165.118E-03     1.20891E-03     330.364E-03     179.496E+06    -183.861E+06    -185.750E+06    -364.292E+06    -184.237E+06    -364.289E+06    -185.378E+06     491.125E+03
             270     81.6246E-03    -4.07556E-06     81.6246E-03     329.424E-03    -163.744E-03    -165.680E-03    -163.743E-03     329.423E-03    -165.680E-03     1.18919E-03     329.649E-03     179.298E+06    -185.128E+06    -186.397E+06    -365.057E+06    -185.512E+06    -365.045E+06    -186.024E+06    -363.353E+03
             271     80.2367E-03     2.88602E-06     80.2367E-03     331.071E-03    -164.599E-03    -166.472E-03    -165.771E-03     331.068E-03    -165.297E-03     2.10348E-03     331.295E-03     182.889E+06    -183.278E+06    -185.383E+06    -367.210E+06    -183.298E+06    -367.190E+06    -185.383E+06     158.709E+03
             272     78.8421E-03    -908.539E-09     78.8421E-03     331.124E-03    -164.926E-03    -166.197E-03    -166.098E-03     331.121E-03    -165.022E-03     1.05650E-03     331.318E-03     181.610E+06    -182.155E+06    -186.001E+06    -365.653E+06    -184.813E+06    -365.633E+06    -183.364E+06     173.488E+03
             273     77.4558E-03     782.246E-09     77.4558E-03     329.488E-03    -164.536E-03    -164.952E-03    -164.854E-03     329.486E-03    -164.632E-03     677.803E-06     329.684E-03     182.102E+06    -183.210E+06    -187.679E+06    -367.503E+06    -185.857E+06    -367.494E+06    -185.042E+06    -1.19402E+06
             274     76.7945E-03     14.4284E-03     75.4269E-03     331.161E-03    -164.751E-03    -166.410E-03    -163.517E-03     328.525E-03    -165.009E-03     70.1569E-03     400.287E-03     139.278E+06     132.777E+06     128.918E+06    -8.37694E+06    -8.37273E+06     128.914E+06     132.777E+06     162.760E+03
             275     76.5270E-03     13.5792E-03     75.3126E-03     331.293E-03    -164.936E-03    -166.357E-03    -163.479E-03     328.435E-03    -164.956E-03     74.0324E-03     400.368E-03     131.185E+06     116.559E+06     112.709E+06    -16.4905E+06    -16.4886E+06     115.801E+06     113.466E+06    -272.561E+03
             276     76.3057E-03     12.7297E-03     75.2364E-03     329.922E-03    -164.904E-03    -165.018E-03    -163.093E-03     328.016E-03    -164.923E-03     61.2962E-03     383.592E-03     125.632E+06     104.213E+06     96.8635E+06    -24.9262E+06    -24.9219E+06     104.209E+06     96.8635E+06    -304.453E+03
             277     76.0900E-03     11.8803E-03     75.1568E-03     329.842E-03    -164.824E-03    -165.018E-03    -163.208E-03     328.124E-03    -164.915E-03     58.0736E-03     376.918E-03     124.395E+06     96.4321E+06     83.9500E+06    -33.6837E+06    -33.6784E+06     96.4267E+06     83.9500E+06    -471.086E+03
             278     75.8946E-03     11.0313E-03     75.0886E-03     329.502E-03    -164.535E-03    -164.967E-03    -163.148E-03     328.106E-03    -164.958E-03     52.4186E-03     369.034E-03     127.839E+06     89.9012E+06     79.8236E+06    -42.5455E+06    -42.5423E+06     89.8980E+06     79.8236E+06    -375.477E+03
             279     75.7110E-03     10.1810E-03     75.0234E-03     329.508E-03    -164.454E-03    -165.053E-03    -163.244E-03     328.276E-03    -165.032E-03     49.2359E-03     363.470E-03     120.901E+06     75.2482E+06     59.3840E+06    -52.2127E+06    -52.2103E+06     61.2335E+06     73.3964E+06     40.9495E+03
             280     75.5442E-03     9.33287E-03     74.9655E-03     329.611E-03    -164.501E-03    -165.110E-03    -163.454E-03     328.543E-03    -165.089E-03     45.8590E-03     358.988E-03     105.536E+06     56.1140E+06     7.96014E+06    -62.5493E+06    -62.5433E+06     7.95411E+06     56.1140E+06     323.738E+03
             281     75.3911E-03     8.48410E-03     74.9122E-03     329.611E-03    -164.469E-03    -165.142E-03    -163.557E-03     328.699E-03    -165.142E-03     42.3828E-03     355.135E-03     101.276E+06     39.1242E+06    -40.4586E+06    -73.7188E+06    -73.6653E+06    -40.5122E+06     39.1242E+06     601.705E+03
             282     75.2499E-03     7.63480E-03     74.8616E-03     329.848E-03    -164.683E-03    -165.165E-03    -163.925E-03     329.090E-03    -165.165E-03     38.6293E-03     351.999E-03     105.118E+06     20.6806E+06    -76.4529E+06    -90.7304E+06    -85.9863E+06    -81.1970E+06     20.6806E+06     614.016E+03
             283     75.1252E-03     6.78683E-03     74.8180E-03     329.803E-03    -164.640E-03    -165.163E-03    -164.037E-03     329.200E-03    -165.163E-03     34.4453E-03     348.856E-03     111.579E+06     1.79338E+06    -98.1946E+06    -118.034E+06    -98.2037E+06    -118.025E+06     1.79338E+06     181.641E+03
             284     75.0139E-03     5.93847E-03     74.7784E-03     329.593E-03    -164.436E-03    -165.157E-03    -163.980E-03     329.138E-03    -165.157E-03     29.8979E-03     345.492E-03     119.678E+06    -18.8438E+06    -110.835E+06    -153.609E+06    -110.838E+06    -153.606E+06    -18.8438E+06     64.3367E+03
             285     74.9201E-03     5.08917E-03     74.7470E-03     329.575E-03    -164.426E-03    -165.150E-03    -164.109E-03     329.258E-03    -165.150E-03     24.8850E-03     342.278E-03     128.672E+06    -42.4401E+06    -124.122E+06    -190.416E+06    -124.126E+06    -190.412E+06    -42.4401E+06     236.559E+03
             286     74.8412E-03     4.24166E-03     74.7209E-03     329.561E-03    -164.431E-03    -165.130E-03    -164.233E-03     329.363E-03    -165.130E-03     19.5815E-03     339.047E-03     137.494E+06    -69.0146E+06    -137.980E+06    -227.010E+06    -137.981E+06    -227.009E+06    -69.0146E+06     179.146E+03
             287     74.7789E-03     3.39286E-03     74.7019E-03     329.699E-03    -164.616E-03    -165.083E-03    -164.508E-03     329.591E-03    -165.083E-03     14.4159E-03     336.146E-03     145.506E+06    -98.4015E+06    -151.895E+06    -262.799E+06    -151.895E+06    -262.798E+06    -98.4015E+06     54.9517E+03
             288     74.7329E-03     2.54433E-03     74.6896E-03     329.708E-03    -164.697E-03    -165.012E-03    -164.645E-03     329.657E-03    -165.012E-03     9.80497E-03     333.543E-03     156.058E+06    -128.700E+06    -164.402E+06    -299.203E+06    -164.403E+06    -299.203E+06    -128.700E+06     39.4366E+03
             289     74.7010E-03     1.69581E-03     74.6817E-03     329.692E-03    -164.670E-03    -165.023E-03    -164.722E-03     329.674E-03    -164.952E-03     5.81643E-03     331.540E-03     167.408E+06    -156.698E+06    -174.937E+06    -332.309E+06    -174.947E+06    -332.298E+06    -156.698E+06     144.291E+03
             290     74.6821E-03     848.462E-06     74.6773E-03     329.777E-03    -164.585E-03    -165.191E-03    -164.987E-03     329.772E-03    -164.784E-03     2.70342E-03     330.395E-03     177.897E+06    -175.593E+06    -181.451E+06    -356.304E+06    -181.273E+06    -356.290E+06    -175.785E+06     589.697E+03
             291     75.4286E-03     14.4287E-03     74.0357E-03     331.105E-03    -164.840E-03    -166.265E-03    -163.449E-03     328.446E-03    -164.997E-03     70.4620E-03     400.375E-03     139.218E+06     133.634E+06     129.224E+06    -7.71947E+06    -7.71486E+06     129.220E+06     133.634E+06    -123.966E+03
             292     75.1606E-03     13.5795E-03     73.9237E-03     331.300E-03    -164.925E-03    -166.375E-03    -163.485E-03     328.430E-03    -164.944E-03     74.1404E-03     400.437E-03     130.780E+06     116.364E+06     112.922E+06    -16.0927E+06    -16.0899E+06     115.444E+06     113.839E+06    -160.480E+03
             293     74.9358E-03     12.7299E-03     73.8467E-03     330.066E-03    -164.887E-03    -165.179E-03    -163.252E-03     328.159E-03    -164.906E-03     61.3362E-03     383.713E-03     125.234E+06     103.478E+06     97.0793E+06     -24.825E+06    -24.8229E+06     103.475E+06     97.0793E+06     376.761E+03
             294     74.7179E-03     11.8807E-03     73.7673E-03     329.833E-03    -164.822E-03    -165.011E-03    -163.192E-03     328.083E-03    -164.892E-03     58.6300E-03     376.979E-03     124.327E+06     96.7310E+06     84.3727E+06    -33.2486E+06    -33.2465E+06     96.7290E+06     84.3727E+06     133.252E+03
             295     74.5194E-03     11.0316E-03     73.6983E-03     329.496E-03    -164.554E-03    -164.942E-03    -163.141E-03     328.074E-03    -164.933E-03     52.8920E-03     369.066E-03     127.179E+06     89.2817E+06     79.6739E+06    -42.2575E+06    -42.2548E+06     89.2790E+06     79.6739E+06    -383.667E+03
             296     74.3364E-03     10.1828E-03     73.6357E-03     329.150E-03    -164.129E-03    -165.021E-03    -162.898E-03     327.919E-03    -165.021E-03     49.1890E-03     363.135E-03     120.103E+06     74.0482E+06     58.6812E+06    -52.3294E+06    -52.3277E+06     59.8026E+06     72.9251E+06    -227.398E+03
             297     74.1643E-03     9.33211E-03     73.5748E-03     329.414E-03    -164.313E-03    -165.101E-03    -163.245E-03     328.347E-03    -165.101E-03     45.8301E-03     358.762E-03     105.437E+06     55.4132E+06     6.94323E+06    -63.2213E+06    -63.2161E+06     6.93799E+06     55.4132E+06     211.205E+03
             298     74.0103E-03     8.48353E-03     73.5224E-03     330.049E-03    -164.804E-03    -165.245E-03    -164.000E-03     329.143E-03    -165.143E-03     42.2636E-03     355.532E-03     101.525E+06     38.7791E+06    -41.0600E+06    -74.3298E+06    -74.2774E+06    -41.1124E+06     38.7791E+06     602.714E+03
             299     73.8672E-03     7.63540E-03     73.4715E-03     329.901E-03    -164.660E-03    -165.241E-03    -164.020E-03     329.159E-03    -165.139E-03     38.2134E-03     352.031E-03     105.382E+06     21.4895E+06    -75.8045E+06    -90.2666E+06    -85.3743E+06    -80.6968E+06     21.4895E+06     678.852E+03
             300     73.7403E-03     6.78672E-03     73.4273E-03     329.502E-03    -164.359E-03    -165.144E-03    -163.768E-03     328.911E-03    -165.144E-03     34.0920E-03     348.543E-03     111.668E+06     2.19467E+06    -97.7202E+06    -117.821E+06    -97.7358E+06    -117.805E+06     2.19467E+06     379.373E+03
             301     73.6296E-03     5.93776E-03     73.3898E-03     329.465E-03    -164.300E-03    -165.164E-03    -163.838E-03     329.003E-03    -165.164E-03     30.1151E-03     345.359E-03     119.887E+06    -18.7619E+06    -110.857E+06    -153.791E+06    -110.860E+06    -153.789E+06    -18.7619E+06     102.699E+03
             302     73.5327E-03     5.08992E-03     73.3563E-03     329.604E-03    -164.434E-03    -165.170E-03    -164.109E-03     329.279E-03    -165.170E-03     25.1763E-03     342.294E-03     129.350E+06    -42.4298E+06    -124.544E+06    -191.181E+06    -124.546E+06    -191.179E+06    -42.4298E+06     159.879E+03
             303     73.4545E-03     4.24081E-03     73.3320E-03     329.676E-03    -164.532E-03    -165.143E-03    -164.330E-03     329.474E-03    -165.143E-03     19.8021E-03     339.150E-03     137.846E+06    -68.9195E+06    -138.273E+06    -227.349E+06    -138.275E+06    -227.347E+06    -68.9195E+06     381.286E+03
             304     73.3907E-03     3.39254E-03     73.3122E-03     329.690E-03    -164.602E-03    -165.089E-03    -164.491E-03     329.580E-03    -165.089E-03     14.5011E-03     336.128E-03     145.603E+06    -98.3488E+06    -151.704E+06    -262.788E+06    -151.704E+06    -262.787E+06    -98.3488E+06     128.595E+03
             305     73.3440E-03     2.54474E-03     73.2999E-03     329.828E-03    -164.769E-03    -165.059E-03    -164.782E-03     329.780E-03    -164.997E-03     9.50341E-03     333.672E-03     156.780E+06    -128.455E+06    -164.145E+06    -299.716E+06    -164.146E+06    -299.715E+06    -128.455E+06    -151.378E+03
             306     73.3121E-03     1.69697E-03     73.2925E-03     329.749E-03    -164.775E-03    -164.975E-03    -164.890E-03     329.732E-03    -164.842E-03     5.68763E-03     331.610E-03     168.006E+06    -156.544E+06    -174.443E+06    -332.581E+06    -174.452E+06    -332.572E+06    -156.544E+06    -40.3831E+03
             307     73.2926E-03     848.392E-06     73.2877E-03     329.413E-03    -164.586E-03    -164.828E-03    -164.652E-03     329.408E-03    -164.757E-03     2.61594E-03     330.028E-03     177.332E+06    -176.950E+06    -181.684E+06    -356.561E+06    -181.426E+06    -356.547E+06    -177.221E+06    -391.411E+03
             308     74.0669E-03     14.4288E-03     72.6479E-03     330.990E-03    -164.664E-03    -166.327E-03    -163.292E-03     328.289E-03    -164.996E-03     70.8333E-03     400.312E-03     139.227E+06     133.284E+06     128.650E+06    -8.18806E+06    -8.18646E+06     128.649E+06     133.284E+06    -271.150E+03
             309     73.7926E-03     13.5787E-03     72.5325E-03     331.504E-03    -164.946E-03    -166.559E-03    -163.657E-03     328.603E-03    -164.946E-03     74.4025E-03     400.590E-03     130.755E+06     115.704E+06     112.427E+06    -16.6551E+06    -16.6535E+06     114.564E+06     113.566E+06     304.279E+03
             310     73.5671E-03     12.7304E-03     72.4572E-03     330.087E-03    -164.879E-03    -165.208E-03    -163.298E-03     328.201E-03    -164.904E-03     60.9861E-03     383.723E-03     125.766E+06     103.794E+06     97.7601E+06    -24.8704E+06    -24.8687E+06     103.793E+06     97.7601E+06     445.271E+03
             311     73.3469E-03     11.8806E-03     72.3783E-03     329.579E-03    -164.662E-03    -164.917E-03    -162.909E-03     327.805E-03    -164.895E-03     59.0404E-03     376.696E-03     124.942E+06     97.2376E+06     84.6667E+06    -33.4439E+06    -33.4429E+06     97.2365E+06     84.6667E+06     356.436E+03
             312     73.1451E-03     11.0309E-03     72.3085E-03     329.532E-03    -164.585E-03    -164.947E-03    -163.128E-03     328.075E-03    -164.947E-03     53.5334E-03     369.148E-03     126.777E+06     88.3498E+06     79.1650E+06    -42.5618E+06    -42.5610E+06     88.3489E+06     79.1650E+06     68.9022E+03
             313     72.9593E-03     10.1816E-03     72.2454E-03     329.637E-03    -164.528E-03    -165.109E-03    -163.393E-03     328.411E-03    -165.018E-03     49.1126E-03     363.695E-03     119.649E+06     73.3277E+06     58.3900E+06    -52.3525E+06    -52.3517E+06     58.8986E+06     72.8183E+06    -28.9843E+03
             314     72.7887E-03     9.33282E-03     72.1879E-03     329.615E-03    -164.462E-03    -165.153E-03    -163.501E-03     328.564E-03    -165.063E-03     45.5084E-03     358.926E-03     105.409E+06     55.4976E+06     7.06055E+06    -63.1680E+06    -63.1625E+06     7.05503E+06     55.4976E+06     388.241E+03
             315     72.6265E-03     8.48387E-03     72.1293E-03     329.666E-03    -164.459E-03    -165.207E-03    -163.665E-03     328.770E-03    -165.105E-03     41.9939E-03     355.175E-03     101.427E+06     38.4997E+06    -41.9040E+06    -74.0926E+06    -74.0851E+06    -41.9114E+06     38.4997E+06     154.602E+03
             316     72.4856E-03     7.63628E-03     72.0822E-03     329.601E-03    -164.364E-03    -165.236E-03    -163.714E-03     328.848E-03    -165.134E-03     38.5008E-03     351.820E-03     105.662E+06     21.5200E+06    -76.8201E+06    -90.0929E+06    -85.2572E+06    -81.6558E+06     21.5200E+06     133.623E+03
             317     72.3575E-03     6.78688E-03     72.0385E-03     329.587E-03    -164.432E-03    -165.154E-03    -163.822E-03     328.976E-03    -165.154E-03     34.6161E-03     348.617E-03     112.108E+06     2.72172E+06    -97.6197E+06    -117.747E+06    -97.6387E+06    -117.728E+06     2.72172E+06     472.673E+03
             318     72.2443E-03     5.93822E-03     71.9999E-03     329.549E-03    -164.384E-03    -165.165E-03    -163.933E-03     329.097E-03    -165.165E-03     29.7472E-03     345.419E-03     120.242E+06    -18.4135E+06    -110.728E+06    -153.849E+06    -110.733E+06    -153.844E+06    -18.4135E+06     436.043E+03
             319     72.1470E-03     5.08873E-03     71.9673E-03     329.488E-03    -164.315E-03    -165.173E-03    -164.000E-03     329.172E-03    -165.173E-03     24.7982E-03     342.160E-03     129.969E+06    -42.0970E+06    -124.225E+06    -191.569E+06    -124.228E+06    -191.566E+06    -42.0970E+06     378.880E+03
             320     72.0662E-03     4.24107E-03     71.9413E-03     329.670E-03    -164.513E-03    -165.157E-03    -164.316E-03     329.473E-03    -165.157E-03     19.5243E-03     339.138E-03     138.342E+06    -68.6828E+06    -137.893E+06    -227.665E+06    -137.894E+06    -227.664E+06    -68.6828E+06     238.426E+03
             321     72.0030E-03     3.39302E-03     71.9230E-03     329.749E-03    -164.648E-03    -165.100E-03    -164.540E-03     329.641E-03    -165.100E-03     14.4158E-03     336.180E-03     146.033E+06    -98.0076E+06    -151.302E+06    -262.891E+06    -151.303E+06    -262.890E+06    -98.0076E+06     146.577E+03
             322     71.9549E-03     2.54433E-03     71.9099E-03     329.791E-03    -164.711E-03    -165.081E-03    -164.721E-03     329.740E-03    -165.019E-03     9.84491E-03     333.634E-03     157.551E+06    -128.103E+06    -163.888E+06    -300.184E+06    -163.889E+06    -300.182E+06    -128.103E+06    -180.562E+03
             323     71.9227E-03     1.69641E-03     71.9026E-03     329.770E-03    -164.788E-03    -164.982E-03    -164.847E-03     329.751E-03    -164.904E-03     5.77528E-03     331.638E-03     168.441E+06    -155.784E+06    -174.716E+06    -332.721E+06    -174.723E+06    -332.714E+06    -155.784E+06    -59.5630E+03
             324     71.9054E-03     848.257E-06     71.9004E-03     329.578E-03    -164.452E-03    -165.126E-03    -165.041E-03     329.574E-03    -164.532E-03     2.43876E-03     330.195E-03     177.738E+06    -176.497E+06    -182.588E+06    -357.143E+06    -181.960E+06    -357.122E+06    -177.145E+06     339.028E+03
             325     72.7049E-03     14.4281E-03     71.2589E-03     331.200E-03    -164.687E-03    -166.513E-03    -163.509E-03     328.505E-03    -164.995E-03     70.7656E-03     400.420E-03     139.566E+06     133.055E+06     128.434E+06    -8.75133E+06    -8.74962E+06     128.433E+06     133.055E+06     82.9545E+03
             326     72.4259E-03     13.5796E-03     71.1415E-03     331.393E-03    -164.814E-03    -166.579E-03    -163.566E-03     328.508E-03    -164.941E-03     74.1316E-03     400.409E-03     130.280E+06     114.755E+06     112.004E+06    -16.8748E+06    -16.8728E+06     113.575E+06     113.181E+06    -26.7245E+03
             327     72.1988E-03     12.7299E-03     71.0677E-03     329.931E-03    -164.754E-03    -165.177E-03    -163.161E-03     328.067E-03    -164.906E-03     60.6215E-03     383.654E-03     124.873E+06     103.054E+06     97.5498E+06    -24.4602E+06    -24.4577E+06     103.052E+06     97.5498E+06     58.6631E+03
             328     71.9770E-03     11.8804E-03     70.9898E-03     329.741E-03    -164.692E-03    -165.049E-03    -163.095E-03     327.993E-03    -164.898E-03     58.5940E-03     376.879E-03     124.586E+06      97.442E+06     85.3752E+06    -32.6820E+06    -32.6797E+06     97.4397E+06     85.3752E+06     508.186E+03
             329     71.7718E-03     11.0308E-03     70.9191E-03     329.360E-03    -164.411E-03    -164.948E-03    -162.983E-03     327.931E-03    -164.948E-03     53.0008E-03     368.949E-03     126.853E+06     88.6190E+06     79.8160E+06    -42.2281E+06    -42.2246E+06     88.6154E+06     79.8160E+06     488.134E+03
             330     71.5828E-03     10.1819E-03     70.8550E-03     329.801E-03    -164.658E-03    -165.142E-03    -163.549E-03     328.564E-03    -165.014E-03     49.3613E-03     363.837E-03     119.560E+06     73.1395E+06     57.6952E+06    -52.6219E+06    -52.6195E+06     58.3602E+06     72.4722E+06     256.804E+03
             331     71.4089E-03     9.33434E-03     70.7962E-03     330.027E-03    -164.864E-03    -165.163E-03    -163.914E-03     328.949E-03    -165.035E-03     46.0937E-03     359.382E-03     105.144E+06     55.9270E+06     6.81253E+06    -62.5322E+06    -62.5308E+06     6.81113E+06     55.9270E+06     234.703E+03
             332     71.2492E-03     8.48534E-03     70.7421E-03     329.302E-03    -164.228E-03    -165.074E-03    -163.321E-03     328.395E-03    -165.074E-03     42.2099E-03     354.813E-03     101.545E+06     39.0345E+06    -41.7505E+06    -73.6669E+06    -73.6609E+06    -41.7566E+06     39.0345E+06     193.922E+03
             333     71.1033E-03     7.63384E-03     70.6924E-03     329.265E-03    -164.130E-03    -165.135E-03    -163.385E-03     328.520E-03    -165.135E-03     38.2604E-03     351.476E-03     106.066E+06     20.9060E+06    -77.4129E+06    -91.4241E+06    -85.9077E+06    -82.9292E+06     20.9060E+06     12.4517E+03
             334     70.9732E-03     6.78614E-03     70.6481E-03     329.758E-03    -164.593E-03    -165.165E-03    -163.994E-03     329.159E-03    -165.165E-03     34.3061E-03     348.809E-03     112.553E+06     2.83087E+06    -97.6710E+06    -118.332E+06    -97.6912E+06    -118.312E+06     2.83087E+06     269.453E+03
             335     70.8589E-03     5.93825E-03     70.6097E-03     329.759E-03    -164.614E-03    -165.145E-03    -164.168E-03     329.313E-03    -165.145E-03     29.5571E-03     345.645E-03     120.420E+06    -18.2587E+06    -110.510E+06    -153.894E+06    -110.519E+06    -153.884E+06    -18.2587E+06     436.291E+03
             336     70.7618E-03     5.09050E-03     70.5785E-03     329.488E-03    -164.363E-03    -165.125E-03    -164.054E-03     329.179E-03    -165.125E-03     24.5821E-03     342.180E-03     130.170E+06    -42.0091E+06    -123.672E+06    -191.763E+06    -123.675E+06    -191.760E+06    -42.0091E+06     300.340E+03
             337     70.6787E-03     4.24090E-03     70.5514E-03     329.345E-03    -164.216E-03    -165.129E-03    -164.020E-03     329.149E-03    -165.129E-03     19.5061E-03     338.799E-03     138.883E+06    -68.3771E+06    -137.205E+06    -227.918E+06    -137.206E+06    -227.917E+06    -68.3771E+06      195.46E+03
             338     70.6149E-03     3.39241E-03     70.5333E-03     329.585E-03    -164.456E-03    -165.129E-03    -164.347E-03     329.476E-03    -165.129E-03     14.5225E-03     336.021E-03     146.635E+06    -97.6014E+06    -150.865E+06    -263.142E+06    -150.865E+06    -263.141E+06    -97.6014E+06     246.715E+03
             339     70.5663E-03     2.54457E-03     70.5205E-03     329.770E-03    -164.664E-03    -165.106E-03    -164.612E-03     329.718E-03    -165.106E-03     9.84564E-03     333.619E-03     157.693E+06    -128.074E+06    -163.661E+06    -300.212E+06    -163.664E+06    -300.209E+06    -128.074E+06     416.949E+03
             340     70.5337E-03     1.69597E-03     70.5133E-03     329.864E-03    -164.755E-03    -165.109E-03    -164.753E-03     329.846E-03    -165.093E-03     5.62310E-03     331.729E-03     168.790E+06    -156.692E+06    -174.764E+06    -333.612E+06    -174.768E+06    -333.608E+06    -156.692E+06    -26.8161E+03
             341     70.5154E-03     848.153E-06     70.5103E-03     330.110E-03    -164.531E-03    -165.580E-03    -165.119E-03     330.105E-03    -164.986E-03     3.14405E-03     330.733E-03     178.179E+06    -175.890E+06    -182.464E+06    -357.224E+06    -181.914E+06    -357.205E+06    -176.458E+06    -147.641E+03
             342     71.3409E-03     14.4291E-03     69.8665E-03     331.250E-03    -164.893E-03    -166.357E-03    -163.573E-03     328.560E-03    -164.987E-03     70.7895E-03     400.497E-03     139.176E+06     133.813E+06     128.734E+06    -7.81406E+06    -7.81322E+06     128.733E+06     133.813E+06     248.760E+03
             343     71.0627E-03     13.5797E-03     69.7532E-03     331.101E-03    -164.810E-03    -166.291E-03    -163.290E-03     328.227E-03    -164.937E-03     74.0049E-03     400.245E-03     129.651E+06     114.506E+06     112.277E+06    -16.2447E+06    -16.2430E+06     113.329E+06     113.453E+06    -152.414E+03
             344     70.8315E-03     12.7296E-03     69.6783E-03     330.015E-03    -164.779E-03    -165.235E-03    -163.232E-03     328.138E-03    -164.907E-03     60.8276E-03     383.759E-03     123.901E+06     101.371E+06     96.7627E+06    -24.7493E+06    -24.7472E+06     101.369E+06     96.7627E+06    -152.745E+03
             345     70.6059E-03     11.8811E-03     69.5990E-03     330.074E-03    -164.843E-03    -165.231E-03    -163.452E-03     328.337E-03    -164.885E-03     58.4368E-03     377.242E-03     124.086E+06     96.3473E+06     85.0520E+06    -32.9452E+06    -32.9365E+06     96.3386E+06     85.0520E+06     758.330E+03
             346     70.4005E-03     11.0322E-03     69.5307E-03     329.512E-03    -164.560E-03    -164.952E-03    -163.176E-03     328.091E-03    -164.915E-03     52.8943E-03     369.061E-03     127.026E+06     89.1361E+06     80.5042E+06    -41.8369E+06    -41.8261E+06     89.1253E+06     80.5042E+06     1.09548E+06
             347     70.2078E-03     10.1818E-03     69.4656E-03     329.356E-03    -164.330E-03    -165.026E-03    -163.123E-03     328.112E-03    -164.989E-03     49.4601E-03     363.310E-03     119.782E+06     74.3667E+06     58.3793E+06    -51.8212E+06    -51.8185E+06     59.2681E+06     73.4751E+06     415.008E+03
             348     70.0290E-03     9.33213E-03     69.4044E-03     329.484E-03    -164.396E-03    -165.088E-03    -163.366E-03     328.417E-03    -165.051E-03     45.7950E-03     358.881E-03     105.259E+06     55.7984E+06     6.00174E+06    -62.8504E+06    -62.8498E+06     6.00116E+06     55.7984E+06     70.5927E+03
             349     69.8702E-03     8.48401E-03     69.3532E-03     329.748E-03    -164.491E-03    -165.258E-03    -163.739E-03     328.833E-03    -165.094E-03     42.4753E-03     355.342E-03     101.643E+06     38.8113E+06    -42.3476E+06    -73.9399E+06    -73.9350E+06    -42.3526E+06     38.8113E+06     248.217E+03
             350     69.7229E-03     7.63700E-03     69.3034E-03     329.781E-03    -164.512E-03    -165.269E-03    -163.921E-03     329.025E-03    -165.105E-03     38.5210E-03     351.963E-03     106.138E+06     21.2577E+06    -76.8080E+06    -91.3901E+06    -85.2292E+06    -82.9689E+06     21.2577E+06     179.498E+03
             351     69.5897E-03     6.78719E-03     69.2579E-03     329.431E-03    -164.317E-03    -165.114E-03    -163.735E-03     328.849E-03    -165.114E-03     33.8123E-03     348.471E-03     112.759E+06     2.43409E+06    -97.5075E+06    -119.377E+06    -97.5340E+06    -119.350E+06     2.43409E+06     29.1267E+03
             352     69.4742E-03     5.93810E-03     69.2200E-03     329.384E-03    -164.251E-03    -165.134E-03    -163.804E-03     328.937E-03    -165.134E-03     29.6408E-03     345.304E-03     120.571E+06    -18.3041E+06    -110.077E+06    -154.297E+06    -110.091E+06    -154.282E+06    -18.3041E+06     212.571E+03
             353     69.3747E-03     5.08951E-03     69.1877E-03     329.566E-03    -164.430E-03    -165.136E-03    -164.107E-03     329.243E-03    -165.136E-03     25.1192E-03     342.269E-03     130.132E+06    -42.2625E+06    -123.305E+06    -191.998E+06    -123.311E+06    -191.993E+06    -42.2625E+06     201.350E+03
             354     69.2939E-03     4.24171E-03     69.1639E-03     329.486E-03    -164.363E-03    -165.124E-03    -164.161E-03     329.284E-03    -165.124E-03     19.7851E-03     338.945E-03     139.223E+06    -68.4052E+06    -136.817E+06    -228.303E+06    -136.820E+06    -228.300E+06    -68.4052E+06     232.601E+03
             355     69.2263E-03     3.39246E-03     69.1431E-03     329.424E-03    -164.294E-03    -165.130E-03    -164.186E-03     329.316E-03    -165.130E-03     14.4024E-03     335.852E-03     147.073E+06    -97.7513E+06    -150.573E+06    -263.642E+06    -150.575E+06    -263.640E+06    -97.7513E+06     383.135E+03
             356     69.1778E-03     2.54391E-03     69.1311E-03     329.669E-03    -164.504E-03    -165.165E-03    -164.454E-03     329.619E-03    -165.165E-03     9.62509E-03     333.524E-03     158.140E+06    -128.043E+06    -163.824E+06    -300.755E+06    -163.828E+06    -300.751E+06    -128.043E+06     656.111E+03
             357     69.1445E-03     1.69597E-03     69.1237E-03     330.019E-03    -164.809E-03    -165.210E-03    -164.791E-03     330.001E-03    -165.210E-03     5.57821E-03     331.884E-03     169.366E+06    -155.386E+06    -173.780E+06    -332.986E+06    -173.784E+06    -332.983E+06    -155.386E+06     667.761E+03
             358     69.1261E-03     847.247E-06     69.1209E-03     330.376E-03    -164.953E-03    -165.423E-03    -164.954E-03     330.371E-03    -165.417E-03     2.49374E-03     330.998E-03     178.684E+06    -175.131E+06    -182.245E+06    -357.246E+06    -180.812E+06    -357.236E+06    -176.575E+06    -118.841E+03
             359     69.9817E-03     14.4290E-03     68.4781E-03     331.003E-03    -164.862E-03    -166.141E-03    -163.319E-03     328.310E-03    -164.991E-03     70.7985E-03     400.381E-03     139.100E+06     133.765E+06     127.972E+06    -8.12716E+06    -8.12638E+06     127.971E+06     133.765E+06    -72.2026E+03
             360     69.6988E-03     13.5788E-03     68.3632E-03     331.127E-03    -164.950E-03    -166.177E-03    -163.281E-03     328.231E-03    -164.950E-03     74.3414E-03     400.469E-03     129.945E+06     115.006E+06     111.956E+06    -16.4366E+06    -16.4351E+06     113.297E+06     113.664E+06     258.510E+03
             361     69.4652E-03     12.7302E-03     68.2888E-03     330.191E-03    -164.916E-03    -165.275E-03    -163.370E-03     328.286E-03    -164.916E-03     61.2988E-03     383.996E-03     124.098E+06     101.033E+06     96.7157E+06    -25.1591E+06    -25.1553E+06     101.029E+06     96.7157E+06     428.527E+03
             362     69.2356E-03     11.8805E-03     68.2086E-03     330.129E-03    -164.889E-03    -165.240E-03    -163.477E-03     328.366E-03    -164.889E-03     58.8918E-03     377.292E-03     123.689E+06     94.9022E+06     84.3088E+06    -33.6767E+06    -33.6672E+06     94.8928E+06     84.3088E+06     661.864E+03
             363     69.0283E-03     11.0313E-03     68.1411E-03     329.958E-03    -164.854E-03    -165.104E-03    -163.608E-03     328.511E-03    -164.903E-03     53.4187E-03     369.517E-03     127.535E+06     89.2738E+06     80.6294E+06    -42.2238E+06    -42.2104E+06     89.2603E+06     80.6294E+06     1.03974E+06
             364     68.8330E-03     10.1837E-03     68.0755E-03     329.396E-03    -164.344E-03    -165.052E-03    -163.204E-03     328.160E-03    -164.957E-03     49.2770E-03     363.346E-03     120.574E+06     75.0873E+06     59.0588E+06    -51.9367E+06    -51.9286E+06     60.0767E+06     74.0613E+06     817.974E+03
             365     68.6551E-03     9.33395E-03     68.0176E-03     329.076E-03    -164.050E-03    -165.026E-03    -163.006E-03     328.032E-03    -165.026E-03     45.2916E-03     358.455E-03     105.128E+06     55.9234E+06     5.95909E+06    -62.4556E+06    -62.4527E+06     5.95621E+06     55.9234E+06     82.4805E+03
             366     68.4893E-03     8.48345E-03     67.9618E-03     329.636E-03    -164.385E-03    -165.251E-03    -163.655E-03     328.742E-03    -165.087E-03     41.9329E-03     355.235E-03     101.414E+06     38.5406E+06    -43.2189E+06    -73.7107E+06    -73.7089E+06    -43.2207E+06     38.5406E+06    -88.1808E+03
             367     68.3397E-03     7.63489E-03     67.9119E-03     329.717E-03    -164.448E-03    -165.269E-03    -163.854E-03     328.959E-03    -165.105E-03     38.6331E-03     351.954E-03     106.034E+06     20.8138E+06    -77.4508E+06    -91.5382E+06    -85.4690E+06    -83.5200E+06     20.8138E+06     314.833E+03
             368     68.2082E-03     6.78767E-03     67.8696E-03     329.395E-03    -164.271E-03    -165.124E-03    -163.649E-03     328.773E-03    -165.124E-03     34.9729E-03     348.473E-03     112.367E+06     1.82024E+06    -97.5542E+06    -119.645E+06    -97.5734E+06    -119.626E+06     1.82024E+06     202.787E+03
             369     68.0904E-03     5.93838E-03     67.8310E-03     329.349E-03    -164.188E-03    -165.160E-03    -163.719E-03     328.880E-03    -165.160E-03     30.2840E-03     345.288E-03     120.690E+06    -18.7947E+06    -110.099E+06    -155.078E+06    -110.113E+06    -155.063E+06    -18.7947E+06    -96.0909E+03
             370     67.9895E-03     5.08905E-03     67.7987E-03     329.541E-03    -164.357E-03    -165.184E-03    -164.038E-03     329.222E-03    -165.184E-03     24.9281E-03     342.247E-03     130.712E+06    -42.0514E+06    -123.263E+06    -192.493E+06    -123.277E+06    -192.479E+06    -42.0514E+06     198.960E+03
             371     67.9050E-03     4.24059E-03     67.7724E-03     329.730E-03    -164.567E-03    -165.164E-03    -164.368E-03     329.531E-03    -165.164E-03     19.6580E-03     339.214E-03     139.668E+06    -68.5216E+06    -137.252E+06    -228.936E+06    -137.259E+06    -228.929E+06    -68.5216E+06     424.424E+03
             372     67.8403E-03     3.39324E-03     67.7554E-03     329.631E-03    -164.507E-03    -165.124E-03    -164.397E-03     329.521E-03    -165.124E-03     14.5286E-03     336.086E-03     147.412E+06    -97.9562E+06    -150.827E+06    -264.206E+06    -150.833E+06    -264.200E+06    -97.9562E+06     630.575E+03
             373     67.7890E-03     2.54421E-03     67.7412E-03     329.620E-03    -164.490E-03    -165.130E-03    -164.441E-03     329.571E-03    -165.130E-03     9.51884E-03     333.459E-03     158.700E+06    -127.640E+06    -162.977E+06    -300.759E+06    -162.984E+06    -300.752E+06    -127.640E+06     442.483E+03
             374     67.7555E-03     1.69560E-03     67.7343E-03     329.973E-03    -164.808E-03    -165.165E-03    -164.791E-03     329.956E-03    -165.165E-03     5.48959E-03     331.827E-03     169.983E+06    -154.073E+06    -173.094E+06    -332.617E+06    -173.098E+06    -332.613E+06    -154.073E+06     285.418E+03
             375     67.7349E-03     848.626E-06     67.7296E-03     330.258E-03    -164.640E-03    -165.618E-03    -165.537E-03     330.254E-03    -164.717E-03     2.39382E-03     330.875E-03     179.267E+06    -173.043E+06    -181.880E+06    -356.548E+06    -180.440E+06    -356.544E+06    -174.486E+06     840.307E+03
             376     68.6218E-03     14.4284E-03     67.0878E-03     330.893E-03    -164.686E-03    -166.207E-03    -163.242E-03     328.242E-03    -164.999E-03     70.1797E-03     400.215E-03     138.820E+06     133.448E+06     126.964E+06    -8.49409E+06    -8.49339E+06     126.963E+06     133.448E+06    -159.186E+03
             377     68.3376E-03     13.5791E-03     66.9749E-03     331.194E-03    -164.934E-03    -166.259E-03    -163.356E-03     328.314E-03    -164.958E-03     74.2079E-03     400.369E-03     129.525E+06     114.674E+06     110.822E+06    -16.7304E+06    -16.7259E+06     112.192E+06     113.300E+06     545.056E+03
             378     68.0974E-03     12.7293E-03     66.8970E-03     330.156E-03    -164.899E-03    -165.257E-03    -163.346E-03     328.269E-03    -164.923E-03     61.0303E-03     383.886E-03     124.071E+06     101.256E+06     96.8746E+06    -24.9391E+06    -24.9322E+06     101.249E+06     96.8746E+06     854.753E+03
             379     67.8690E-03     11.8804E-03     66.8210E-03     330.155E-03    -164.896E-03    -165.258E-03    -163.512E-03     328.408E-03    -164.896E-03     58.6362E-03     377.250E-03     123.119E+06     94.7644E+06     84.6241E+06    -33.0582E+06    -33.0531E+06     94.7593E+06     84.6241E+06     571.895E+03
             380     67.6539E-03     11.0318E-03     66.7485E-03     329.750E-03    -164.615E-03    -165.135E-03    -163.381E-03     328.300E-03    -164.919E-03     53.4536E-03     369.340E-03     126.903E+06     88.8024E+06     80.8087E+06    -41.7798E+06    -41.7718E+06     88.7944E+06     80.8087E+06     641.155E+03
             381     67.4596E-03     10.1823E-03     66.6867E-03     329.667E-03    -164.451E-03    -165.215E-03    -163.437E-03     328.409E-03    -164.972E-03     49.7694E-03     363.686E-03     120.367E+06     74.7927E+06     59.0101E+06    -51.9178E+06    -51.9078E+06     59.8610E+06     73.9318E+06     861.082E+03
             382     67.2788E-03     9.33322E-03     66.6283E-03     329.768E-03    -164.618E-03    -165.150E-03    -163.684E-03     328.685E-03    -165.001E-03     46.2008E-03     359.113E-03     105.042E+06     55.8029E+06     5.89270E+06    -62.4551E+06    -62.4463E+06     5.88392E+06     55.8029E+06     519.329E+03
             383     67.1106E-03     8.48589E-03     66.5720E-03     329.292E-03    -164.248E-03    -165.044E-03    -163.343E-03     328.387E-03    -165.044E-03     42.1525E-03     354.807E-03     101.132E+06     38.3996E+06    -43.3314E+06    -73.4307E+06    -73.4024E+06    -43.3597E+06     38.3996E+06     359.700E+03
             384     66.9607E-03     7.63612E-03     66.5238E-03     328.986E-03    -163.869E-03    -165.117E-03    -163.126E-03     328.243E-03    -165.117E-03     38.1709E-03     351.232E-03     105.760E+06     20.5738E+06    -77.4375E+06    -91.5025E+06    -85.0893E+06    -83.8506E+06     20.5738E+06     361.368E+03
             385     66.8247E-03     6.78520E-03     66.4793E-03     329.352E-03    -164.163E-03    -165.189E-03    -163.555E-03     328.744E-03    -165.189E-03     34.5590E-03     348.460E-03     112.440E+06     1.97584E+06    -97.4320E+06    -119.635E+06    -97.4397E+06    -119.628E+06     1.97584E+06     244.281E+03
             386     66.7061E-03     5.93744E-03     66.4413E-03     329.738E-03    -164.523E-03    -165.215E-03    -164.054E-03     329.270E-03    -165.215E-03     30.3142E-03     345.682E-03     121.073E+06    -18.6739E+06    -110.346E+06    -155.338E+06    -110.356E+06    -155.327E+06    -18.6739E+06     161.171E+03
             387     66.6035E-03     5.08985E-03     66.4088E-03     329.756E-03    -164.552E-03    -165.204E-03    -164.231E-03     329.435E-03    -165.204E-03     24.9991E-03     342.484E-03     131.491E+06    -42.2129E+06    -123.879E+06    -193.563E+06    -123.894E+06    -193.548E+06    -42.2129E+06     126.786E+03
             388     66.5190E-03     4.24103E-03     66.3837E-03     329.662E-03    -164.484E-03    -165.178E-03    -164.291E-03     329.469E-03    -165.178E-03     19.3328E-03     339.176E-03     140.085E+06    -68.4600E+06    -137.626E+06    -229.380E+06    -137.635E+06    -229.371E+06    -68.4600E+06     384.284E+03
             389     66.4508E-03     3.39196E-03     66.3642E-03     329.746E-03    -164.610E-03    -165.136E-03    -164.505E-03     329.641E-03    -165.136E-03     14.1861E-03     336.241E-03     148.084E+06    -97.2804E+06    -150.730E+06    -264.366E+06    -150.736E+06    -264.359E+06    -97.2804E+06     512.204E+03
             390     66.4017E-03     2.54470E-03     66.3529E-03     329.745E-03    -164.655E-03    -165.090E-03    -164.605E-03     329.695E-03    -165.090E-03     9.72827E-03     333.598E-03     158.197E+06    -127.663E+06    -162.720E+06    -300.137E+06    -162.727E+06    -300.130E+06    -127.663E+06     278.010E+03
             391     66.3657E-03     1.69654E-03     66.3440E-03     329.813E-03    -164.724E-03    -165.089E-03    -164.704E-03     329.793E-03    -165.089E-03     6.03395E-03     331.654E-03     169.088E+06    -156.173E+06    -173.966E+06    -333.310E+06    -173.971E+06    -333.305E+06    -156.173E+06    -125.347E+03
             392     66.3462E-03     847.208E-06     66.3408E-03     330.130E-03    -164.493E-03    -165.637E-03    -165.501E-03     330.125E-03    -164.624E-03     3.07776E-03     330.733E-03     178.672E+06    -174.026E+06    -182.543E+06    -356.796E+06    -180.936E+06    -356.791E+06    -175.637E+06     11.5439E+03
             393     67.2651E-03     14.4288E-03     65.6994E-03     330.913E-03    -164.659E-03    -166.254E-03    -163.261E-03     328.258E-03    -164.997E-03     70.1510E-03     400.118E-03     138.350E+06     133.093E+06     126.205E+06    -8.56990E+06    -8.56889E+06     126.204E+06     133.093E+06     198.507E+03
             394     66.9748E-03     13.5793E-03     65.5838E-03     331.239E-03    -164.931E-03    -166.308E-03    -163.391E-03     328.346E-03    -164.955E-03     74.3594E-03     400.371E-03     128.794E+06     113.809E+06     109.877E+06    -16.8984E+06    -16.8945E+06     110.953E+06     112.729E+06     514.495E+03
             395     66.7349E-03     12.7300E-03     65.5095E-03     330.218E-03    -164.896E-03    -165.322E-03    -163.401E-03     328.321E-03    -164.920E-03     61.1869E-03     383.947E-03     123.715E+06     101.422E+06     97.5830E+06    -24.1577E+06    -24.1528E+06     101.417E+06     97.5830E+06     605.864E+03
             396     66.4983E-03     11.8809E-03     65.4284E-03     330.005E-03    -164.751E-03    -165.254E-03    -163.356E-03     328.253E-03    -164.897E-03     58.6937E-03     377.125E-03     122.942E+06     95.2039E+06     85.1650E+06    -32.3848E+06    -32.3801E+06     95.1992E+06     85.1650E+06     686.115E+03
             397     66.2856E-03     11.0316E-03     65.3612E-03     329.474E-03    -164.484E-03    -164.991E-03    -163.098E-03     328.031E-03    -164.933E-03     53.2963E-03     369.073E-03     126.086E+06     87.8017E+06     80.0023E+06    -41.8562E+06    -41.8488E+06     87.7943E+06     80.0023E+06     756.330E+03
             398     66.0856E-03     10.1813E-03     65.2966E-03     329.709E-03    -164.556E-03    -165.153E-03    -163.459E-03     328.458E-03    -164.998E-03     49.6462E-03     363.671E-03     119.908E+06     74.2608E+06     59.4481E+06    -51.6418E+06    -51.6325E+06     59.9583E+06     73.7412E+06     417.531E+03
             399     65.9004E-03     9.33418E-03     65.2360E-03     329.815E-03    -164.635E-03    -165.179E-03    -163.706E-03     328.736E-03    -165.031E-03     46.1026E-03     359.195E-03     105.214E+06     55.9494E+06     5.11751E+06    -61.9506E+06    -61.9277E+06     5.09462E+06     55.9494E+06     606.490E+03
             400     65.7341E-03     8.48423E-03     65.1843E-03     329.408E-03    -164.334E-03    -165.074E-03    -163.410E-03     328.484E-03    -165.074E-03     42.6525E-03     354.992E-03     100.975E+06     38.7951E+06    -44.1382E+06    -72.6892E+06    -72.6269E+06    -44.2006E+06     38.7951E+06     1.15046E+06
             401     65.5804E-03     7.63489E-03     65.1345E-03     329.369E-03    -164.243E-03    -165.126E-03    -163.481E-03     328.607E-03    -165.126E-03     38.6924E-03     351.574E-03     105.877E+06     21.3912E+06    -76.3822E+06    -91.0286E+06    -84.4644E+06    -82.9464E+06     21.3912E+06     868.094E+03
             402     65.4438E-03     6.78737E-03     65.0909E-03     329.473E-03    -164.304E-03    -165.168E-03    -163.714E-03     328.883E-03    -165.168E-03     34.0440E-03     348.550E-03     113.097E+06     2.61522E+06    -96.9517E+06    -119.897E+06    -96.9872E+06    -119.862E+06     2.61522E+06     303.154E+03
             403     65.3211E-03     5.93758E-03     65.0506E-03     329.469E-03    -164.271E-03    -165.198E-03    -163.827E-03     329.025E-03    -165.198E-03     29.4952E-03     345.420E-03     121.916E+06    -17.9174E+06    -109.718E+06    -155.685E+06    -109.724E+06    -155.679E+06    -17.9174E+06     408.479E+03
             404     65.2176E-03     5.08872E-03     65.0188E-03     329.593E-03    -164.380E-03    -165.214E-03    -164.066E-03     329.280E-03    -165.214E-03     24.7408E-03     342.337E-03     132.063E+06    -41.7477E+06    -123.028E+06    -193.766E+06    -123.036E+06    -193.758E+06    -41.7477E+06     393.102E+03
             405     65.1318E-03     4.24113E-03     64.9935E-03     329.637E-03    -164.426E-03    -165.212E-03    -164.224E-03     329.436E-03    -165.212E-03     19.7602E-03     339.180E-03     140.776E+06    -68.0744E+06    -136.612E+06    -229.711E+06    -136.619E+06    -229.704E+06    -68.0744E+06     33.4646E+03
             406     65.0641E-03     3.39324E-03     64.9755E-03     329.687E-03    -164.477E-03    -165.210E-03    -164.361E-03     329.571E-03    -165.210E-03     14.8764E-03     336.177E-03     148.973E+06    -96.6991E+06    -150.039E+06    -264.713E+06    -150.043E+06    -264.709E+06    -96.6991E+06    -47.6292E+03
             407     65.0120E-03     2.54403E-03     64.9622E-03     330.017E-03    -164.761E-03    -165.257E-03    -164.784E-03     329.962E-03    -165.178E-03     10.1723E-03     333.877E-03     159.029E+06    -126.957E+06    -162.967E+06    -300.634E+06    -162.969E+06    -300.632E+06    -126.957E+06     280.206E+03
             408     64.9781E-03     1.69566E-03     64.9560E-03     330.174E-03    -164.886E-03    -165.288E-03    -165.107E-03     330.154E-03    -165.048E-03     5.92373E-03     332.008E-03     169.590E+06    -155.090E+06    -173.164E+06    -332.787E+06    -173.174E+06    -332.778E+06    -155.090E+06     589.902E+03
             409     64.9550E-03     848.678E-06     64.9494E-03     329.821E-03    -164.348E-03    -165.473E-03    -164.623E-03     329.817E-03    -165.193E-03     2.46302E-03     330.415E-03     179.562E+06    -174.445E+06    -181.372E+06    -357.355E+06    -179.772E+06    -357.344E+06    -176.055E+06    -209.818E+03
             410     65.9075E-03     14.4286E-03     64.3088E-03     331.029E-03    -164.739E-03    -166.290E-03    -163.383E-03     328.380E-03    -164.997E-03     70.2213E-03     400.198E-03     137.509E+06     133.106E+06     125.681E+06    -7.96032E+06    -7.95892E+06     125.679E+06     133.106E+06     318.418E+03
             411     65.6159E-03     13.5788E-03     64.1955E-03     331.287E-03    -164.946E-03    -166.341E-03    -163.460E-03     328.411E-03    -164.951E-03     74.1986E-03     400.422E-03     128.277E+06     114.335E+06     110.623E+06    -15.7442E+06    -15.7428E+06     111.327E+06     113.629E+06     285.847E+03
             412     65.3691E-03     12.7297E-03     64.1177E-03     330.068E-03    -164.902E-03    -165.166E-03    -163.242E-03     328.161E-03    -164.918E-03     61.3352E-03     383.783E-03     122.802E+06     100.726E+06     97.7329E+06    -23.5373E+06    -23.5351E+06     100.724E+06     97.7329E+06     385.472E+03
             413     65.1330E-03     11.8805E-03     64.0403E-03     329.877E-03    -164.747E-03    -165.130E-03    -163.225E-03     328.129E-03    -164.904E-03     58.5953E-03     376.982E-03     121.989E+06     94.4833E+06     85.0203E+06    -31.8871E+06    -31.8805E+06     94.4767E+06     85.0203E+06     743.837E+03
             414     64.9152E-03     11.0306E-03     63.9712E-03     329.749E-03    -164.734E-03    -165.015E-03    -163.380E-03     328.315E-03    -164.935E-03     53.1696E-03     369.299E-03     125.521E+06     88.3519E+06     80.4318E+06    -40.8083E+06    -40.7985E+06     88.3421E+06     80.4318E+06     991.824E+03
             415     64.7122E-03     10.1833E-03     63.9060E-03     329.538E-03    -164.536E-03    -165.002E-03    -163.294E-03     328.290E-03    -164.996E-03     49.5533E-03     363.431E-03     119.121E+06     74.6611E+06     59.5575E+06    -50.5701E+06    -50.5632E+06     60.2962E+06     73.9155E+06     318.197E+03
             416     64.5259E-03     9.33222E-03     63.8474E-03     329.367E-03    -164.305E-03    -165.062E-03    -163.245E-03     328.306E-03    -165.062E-03     45.6687E-03     358.787E-03     104.976E+06     56.3020E+06     3.23174E+06    -60.9760E+06    -60.9519E+06     3.20765E+06     56.3020E+06     435.696E+03
             417     64.3557E-03     8.48384E-03     63.7941E-03     329.635E-03    -164.515E-03    -165.120E-03    -163.625E-03     328.745E-03    -165.120E-03     41.8497E-03     355.281E-03     101.476E+06     39.6137E+06    -45.1319E+06    -72.3350E+06    -72.1971E+06    -45.2697E+06     39.6137E+06     1.58661E+06
             418     64.2006E-03     7.63573E-03     63.7449E-03     329.716E-03    -164.574E-03    -165.142E-03    -163.819E-03     328.961E-03    -165.142E-03     38.5657E-03     351.932E-03     106.284E+06     22.4024E+06    -75.0917E+06    -90.8440E+06    -84.0495E+06    -81.8863E+06     22.4024E+06     1.48933E+06
             419     64.0603E-03     6.78656E-03     63.6998E-03     329.669E-03    -164.516E-03    -165.153E-03    -163.897E-03     329.051E-03    -165.153E-03     34.8555E-03     348.739E-03     113.322E+06     3.51192E+06    -95.8477E+06    -119.430E+06    -95.9025E+06    -119.375E+06     3.51192E+06     770.146E+03
             420     63.9391E-03     5.93897E-03     63.6627E-03     329.430E-03    -164.259E-03    -165.170E-03    -163.796E-03     328.966E-03    -165.170E-03     30.1205E-03     345.353E-03     122.357E+06    -17.7610E+06    -108.837E+06    -156.250E+06    -108.848E+06    -156.239E+06    -17.7610E+06     334.866E+03
             421     63.8323E-03     5.08975E-03     63.6291E-03     329.181E-03    -163.955E-03    -165.226E-03    -163.635E-03     328.861E-03    -165.226E-03     24.9812E-03     341.894E-03     132.628E+06    -41.0968E+06    -122.046E+06    -193.852E+06    -122.051E+06    -193.848E+06    -41.0968E+06     446.781E+03
             422     63.7454E-03     4.24009E-03     63.6043E-03     329.476E-03    -164.179E-03    -165.297E-03    -163.976E-03     329.272E-03    -165.297E-03     19.8520E-03     338.989E-03     141.543E+06    -67.1145E+06    -135.407E+06    -229.535E+06    -135.414E+06    -229.527E+06    -67.1145E+06     403.263E+03
             423     63.6758E-03     3.39103E-03     63.5855E-03     330.010E-03    -164.679E-03    -165.331E-03    -164.584E-03     329.895E-03    -165.312E-03     14.7622E-03     336.490E-03     149.657E+06    -96.5100E+06    -149.417E+06    -265.178E+06    -149.422E+06    -265.173E+06    -96.5100E+06     47.7570E+03
             424     63.6237E-03     2.54347E-03     63.5728E-03     330.306E-03    -164.969E-03    -165.337E-03    -165.016E-03     330.255E-03    -165.239E-03     9.78238E-03     334.165E-03     160.524E+06    -126.394E+06    -161.966E+06    -301.420E+06    -161.966E+06    -301.420E+06    -126.394E+06     85.4236E+03
             425     63.5862E-03     1.69678E-03     63.5635E-03     330.186E-03    -164.835E-03    -165.351E-03    -165.057E-03     330.168E-03    -165.111E-03     5.81224E-03     332.031E-03     170.752E+06    -153.591E+06    -171.869E+06    -332.576E+06    -171.882E+06    -332.563E+06    -153.591E+06     78.9732E+03
             426     63.5681E-03     848.455E-06     63.5625E-03     330.004E-03    -164.153E-03    -165.852E-03    -164.858E-03     329.999E-03    -165.141E-03     2.63858E-03     330.621E-03     180.863E+06    -172.918E+06    -179.288E+06    -356.842E+06    -178.821E+06    -356.818E+06    -173.408E+06     317.024E+03
             427     64.5520E-03     14.4286E-03     62.9188E-03     331.095E-03    -164.752E-03    -166.343E-03    -163.429E-03     328.432E-03    -165.003E-03     70.4213E-03     400.315E-03     137.515E+06     133.229E+06     125.493E+06    -7.98438E+06    -7.98331E+06     125.492E+06     133.229E+06    -80.1751E+03
             428     64.2567E-03     13.5800E-03     62.8053E-03     331.291E-03    -164.952E-03    -166.339E-03    -163.433E-03     328.390E-03    -164.957E-03     74.5674E-03     400.522E-03     128.382E+06     114.189E+06     110.602E+06    -15.9324E+06    -15.9316E+06     111.151E+06     113.639E+06     118.624E+03
             429     64.0078E-03     12.7301E-03     62.7291E-03     330.038E-03    -164.909E-03    -165.129E-03    -163.190E-03     328.116E-03    -164.926E-03     61.5681E-03     383.792E-03     122.552E+06     99.7538E+06     96.9526E+06    -24.1651E+06    -24.1630E+06     99.7516E+06     96.9526E+06     437.869E+03
             430     63.7669E-03     11.8801E-03     62.6505E-03     330.157E-03    -164.893E-03    -165.264E-03    -163.503E-03     328.408E-03    -164.905E-03     58.6523E-03     377.200E-03     121.357E+06     93.5400E+06     84.5489E+06    -31.9998E+06    -31.9935E+06     93.5337E+06     84.5489E+06     516.687E+03
             431     63.5455E-03     11.0323E-03     62.5805E-03     329.815E-03    -164.692E-03    -165.122E-03    -163.462E-03     328.387E-03    -164.925E-03     53.0339E-03     369.344E-03     125.263E+06     88.9945E+06     81.2500E+06    -39.8531E+06    -39.8478E+06     88.9893E+06     81.2500E+06     374.760E+03
             432     63.3405E-03     10.1815E-03     62.5168E-03     329.304E-03    -164.312E-03    -164.992E-03    -163.088E-03     328.079E-03    -164.992E-03     49.0745E-03     363.315E-03     119.019E+06     75.8971E+06     59.3296E+06    -49.7005E+06    -49.6827E+06     60.3172E+06     74.8918E+06     741.977E+03
             433     63.1522E-03     9.33358E-03     62.4586E-03     329.316E-03    -164.250E-03    -165.067E-03    -163.191E-03     328.257E-03    -165.067E-03     45.6414E-03     358.723E-03     104.970E+06     56.1351E+06     1.60017E+06    -61.5039E+06    -61.4466E+06     1.54286E+06     56.1351E+06     1.44462E+06
             434     62.9774E-03     8.48433E-03     62.4032E-03     329.580E-03    -164.450E-03    -165.131E-03    -163.541E-03     328.672E-03    -165.131E-03     42.2751E-03     355.132E-03     101.711E+06     39.5103E+06    -45.5269E+06    -72.6502E+06    -72.5141E+06     -45.663E+06     39.5103E+06     1.42321E+06
             435     62.8213E-03     7.63525E-03     62.3556E-03     329.631E-03    -164.464E-03    -165.167E-03    -163.700E-03     328.867E-03    -165.167E-03     38.7909E-03     351.827E-03     106.229E+06     23.0070E+06    -74.3412E+06    -90.2544E+06    -83.2074E+06    -81.3882E+06     23.0070E+06     1.21681E+06
             436     62.6790E-03     6.78640E-03     62.3106E-03     329.497E-03    -164.292E-03    -165.205E-03    -163.669E-03     328.875E-03    -165.205E-03     34.9708E-03     348.542E-03     113.511E+06     4.25654E+06    -95.0065E+06    -119.044E+06    -95.0786E+06    -118.972E+06     4.25654E+06     1.09212E+06
             437     62.5541E-03     5.93716E-03     62.2717E-03     329.466E-03    -164.217E-03    -165.249E-03    -163.744E-03     328.993E-03    -165.249E-03     30.4660E-03     345.387E-03     122.444E+06    -17.1521E+06    -108.138E+06    -155.777E+06    -108.165E+06    -155.750E+06    -17.1521E+06     885.487E+03
             438     62.4490E-03     5.08890E-03     62.2413E-03     329.624E-03    -164.335E-03    -165.288E-03    -164.002E-03     329.290E-03    -165.288E-03     25.5244E-03     342.329E-03     132.743E+06    -41.0828E+06    -121.747E+06    -193.975E+06    -121.761E+06    -193.961E+06    -41.0828E+06     457.905E+03
             439     62.3591E-03     4.24018E-03     62.2147E-03     329.937E-03    -164.626E-03    -165.311E-03    -164.450E-03     329.738E-03    -165.287E-03     19.5524E-03     339.404E-03     141.801E+06    -66.8686E+06    -135.525E+06    -229.649E+06    -135.530E+06    -229.644E+06    -66.8686E+06     374.083E+03
             440     62.2875E-03     3.39253E-03     62.1950E-03     330.087E-03    -164.827E-03    -165.260E-03    -164.773E-03     329.990E-03    -165.217E-03     13.6481E-03     336.553E-03     149.884E+06    -96.0881E+06    -148.991E+06    -264.932E+06    -148.996E+06    -264.927E+06    -96.0881E+06     543.011E+03
             441     62.2335E-03     2.54486E-03     62.1814E-03     329.798E-03    -164.612E-03    -165.186E-03    -164.587E-03     329.754E-03    -165.166E-03     9.14453E-03     333.664E-03     160.987E+06    -126.290E+06    -161.316E+06    -301.630E+06    -161.318E+06    -301.628E+06    -126.290E+06     82.7303E+03
             442     62.1987E-03     1.69531E-03     62.1756E-03     329.823E-03    -164.556E-03    -165.266E-03    -164.538E-03     329.805E-03    -165.266E-03     5.78234E-03     331.693E-03     171.384E+06    -154.018E+06    -171.552E+06    -333.294E+06    -171.561E+06    -333.285E+06    -154.018E+06    -344.910E+03
             443     62.1773E-03     846.671E-06     62.1715E-03     330.655E-03    -164.716E-03    -165.939E-03    -165.607E-03     330.649E-03    -165.042E-03     3.17874E-03     331.281E-03     180.833E+06    -173.541E+06    -179.325E+06    -357.161E+06    -178.867E+06    -357.129E+06    -174.032E+06    -357.108E+03
             444     63.1985E-03     14.4284E-03     61.5294E-03     330.733E-03    -164.663E-03    -166.070E-03    -163.050E-03     328.061E-03    -165.011E-03     70.3602E-03     399.958E-03     137.610E+06     133.063E+06     125.199E+06    -8.30157E+06    -8.30070E+06     125.199E+06     133.063E+06     -76.326E+03
             445     62.8982E-03     13.5780E-03     61.4152E-03     331.157E-03    -164.983E-03    -166.174E-03    -163.245E-03     328.228E-03    -164.983E-03     74.8707E-03     400.543E-03     128.272E+06     113.073E+06     109.743E+06    -16.8145E+06    -16.8124E+06     109.989E+06     112.825E+06    -204.100E+03
             446     62.6467E-03     12.7290E-03     61.3399E-03     330.505E-03    -164.949E-03    -165.556E-03    -163.616E-03     328.565E-03    -164.949E-03     61.9144E-03     384.336E-03     122.611E+06     99.5047E+06     97.0446E+06    -24.3089E+06    -24.3053E+06     99.3604E+06     97.1853E+06     116.526E+03
             447     62.4011E-03     11.8809E-03     61.2596E-03     330.331E-03    -164.823E-03    -165.507E-03    -163.658E-03     328.566E-03    -164.908E-03     58.9268E-03     377.398E-03     121.661E+06     93.5501E+06     84.7607E+06    -32.1990E+06    -32.1955E+06     93.5466E+06     84.7607E+06     399.344E+03
             448     62.1770E-03     11.0311E-03     61.1906E-03     329.562E-03    -164.507E-03    -165.055E-03    -163.192E-03     328.124E-03    -164.932E-03     53.2126E-03     369.239E-03     125.805E+06     87.8686E+06     80.3378E+06    -41.4166E+06    -41.4105E+06     87.8625E+06     80.3378E+06     467.039E+03
             449     61.9704E-03     10.1832E-03     61.1280E-03     329.359E-03    -164.348E-03    -165.011E-03    -163.095E-03     328.106E-03    -165.011E-03     49.6470E-03     363.398E-03     119.809E+06     74.9354E+06     58.1752E+06    -51.4752E+06    -51.4467E+06     58.9599E+06     74.1221E+06     1.36864E+06
             450     61.7776E-03     9.33275E-03     61.0686E-03     329.404E-03    -164.318E-03    -165.086E-03    -163.232E-03     328.319E-03    -165.086E-03     46.2129E-03     358.765E-03     105.050E+06     56.2641E+06     1.84307E+06    -61.6352E+06    -61.5779E+06     1.78582E+06     56.2641E+06     1.57362E+06
             451     61.6020E-03     8.48345E-03     61.0150E-03     329.463E-03    -164.304E-03    -165.159E-03    -163.377E-03     328.537E-03    -165.159E-03     42.7015E-03     354.974E-03     101.585E+06     39.9061E+06    -44.6113E+06    -72.2518E+06    -72.1934E+06    -44.6697E+06     39.9061E+06     854.264E+03
             452     61.4407E-03     7.63466E-03     60.9645E-03     329.666E-03    -164.458E-03    -165.209E-03    -163.693E-03     328.901E-03    -165.209E-03     38.7882E-03     351.862E-03     106.393E+06     22.8826E+06    -74.6745E+06    -90.5012E+06    -83.7659E+06    -81.4098E+06     22.8826E+06     699.400E+03
             453     61.2984E-03     6.78639E-03     60.9216E-03     329.583E-03    -164.335E-03    -165.248E-03    -163.731E-03     328.979E-03    -165.248E-03     34.4548E-03     348.647E-03     113.727E+06     4.02294E+06    -95.5925E+06    -119.403E+06    -95.6579E+06    -119.338E+06     4.02294E+06     958.453E+03
             454     61.1718E-03     5.93709E-03     60.8830E-03     329.577E-03    -164.290E-03    -165.287E-03    -163.843E-03     329.130E-03    -165.287E-03     29.5713E-03     345.505E-03     122.845E+06    -16.3334E+06    -107.864E+06    -155.382E+06    -107.896E+06    -155.350E+06    -16.3334E+06     952.815E+03
             455     61.0628E-03     5.08803E-03     60.8504E-03     330.025E-03    -164.742E-03    -165.282E-03    -164.435E-03     329.717E-03    -165.282E-03     24.5498E-03     342.727E-03     132.951E+06    -40.4645E+06    -121.491E+06    -193.567E+06    -121.511E+06    -193.547E+06    -40.4645E+06     662.209E+03
             456     60.9713E-03     4.24120E-03     60.8236E-03     330.110E-03    -164.878E-03    -165.232E-03    -164.704E-03     329.912E-03    -165.208E-03     19.5925E-03     339.585E-03     142.099E+06    -66.7947E+06    -135.149E+06    -229.848E+06    -135.156E+06    -229.841E+06    -66.7947E+06     332.095E+03
             457     60.8994E-03     3.39343E-03     60.8048E-03     329.717E-03    -164.560E-03    -165.157E-03    -164.475E-03     329.608E-03    -165.133E-03     14.4413E-03     336.185E-03     150.224E+06    -95.5722E+06    -148.325E+06    -264.764E+06    -148.328E+06    -264.762E+06    -95.5722E+06     344.797E+03
             458     60.8467E-03     2.54409E-03     60.7935E-03     329.600E-03    -164.463E-03    -165.137E-03    -164.418E-03     329.551E-03    -165.134E-03     9.48145E-03     333.457E-03     161.273E+06    -125.554E+06    -160.847E+06    -301.276E+06    -160.850E+06    -301.273E+06    -125.554E+06     295.876E+03
             459     60.8099E-03     1.69589E-03     60.7863E-03     329.966E-03    -164.744E-03    -165.221E-03    -164.771E-03     329.949E-03    -165.178E-03     5.61762E-03     331.830E-03     172.437E+06    -153.116E+06    -171.459E+06    -333.798E+06    -171.466E+06    -333.790E+06    -153.116E+06    -65.1188E+03
             460     60.7861E-03     848.383E-06     60.7801E-03     330.308E-03    -164.785E-03    -165.523E-03    -165.396E-03     330.303E-03    -164.907E-03     2.78410E-03     330.920E-03     181.828E+06    -172.536E+06    -179.731E+06    -357.810E+06    -178.517E+06    -357.757E+06    -173.804E+06     362.729E+03
             461     61.8475E-03     14.4286E-03     60.1409E-03     330.767E-03    -164.607E-03    -166.160E-03    -163.108E-03     328.122E-03    -165.014E-03     70.0371E-03     399.799E-03     137.126E+06     133.505E+06     125.303E+06    -7.52871E+06    -7.52706E+06     125.301E+06     133.505E+06     34.5842E+03
             462     61.5434E-03     13.5786E-03     60.0268E-03     331.294E-03    -164.980E-03    -166.314E-03    -163.435E-03     328.415E-03    -164.980E-03     74.1972E-03     400.315E-03     127.805E+06     113.891E+06     110.515E+06    -15.5487E+06    -15.5457E+06     110.512E+06     113.891E+06     46.8811E+03
             463     61.2846E-03     12.7293E-03     59.9480E-03     330.285E-03    -164.839E-03    -165.446E-03    -163.451E-03     328.395E-03    -164.944E-03     61.0836E-03     383.926E-03     122.221E+06     99.0584E+06     97.2529E+06    -24.0505E+06    -24.0472E+06     98.7259E+06     97.5821E+06     106.536E+03
             464     61.0370E-03     11.8804E-03     59.8696E-03     329.873E-03    -164.634E-03    -165.239E-03    -163.200E-03     328.125E-03    -164.925E-03     58.6184E-03     376.863E-03     121.574E+06     92.7900E+06     84.7785E+06    -32.5112E+06    -32.5089E+06     92.7877E+06     84.7785E+06     469.670E+03
             465     60.8108E-03     11.0313E-03     59.8018E-03     329.452E-03    -164.481E-03    -164.971E-03    -163.034E-03     328.005E-03    -164.971E-03     53.3546E-03     369.063E-03     124.872E+06     86.6822E+06     79.9102E+06    -41.3107E+06    -41.3040E+06     86.5992E+06     79.9864E+06     820.908E+03
             466     60.5991E-03     10.1805E-03     59.7378E-03     329.484E-03    -164.429E-03    -165.055E-03    -163.175E-03     328.231E-03    -165.055E-03     49.6596E-03     363.461E-03     118.268E+06     73.8310E+06     57.6429E+06    -50.7367E+06    -50.7240E+06     57.7908E+06     73.6704E+06     1.04220E+06
             467     60.4047E-03     9.33264E-03     59.6794E-03     329.652E-03    -164.529E-03    -165.123E-03    -163.453E-03     328.576E-03    -165.123E-03     46.0240E-03     359.021E-03     104.607E+06     56.7118E+06     2.25156E+06    -60.7523E+06    -60.7177E+06     2.21700E+06     56.7118E+06     1.00460E+06
             468     60.2257E-03     8.48379E-03     59.6252E-03     329.679E-03    -164.500E-03    -165.178E-03    -163.589E-03     328.767E-03    -165.178E-03     42.3627E-03     355.216E-03     101.759E+06     40.6079E+06    -43.7554E+06    -71.9045E+06    -71.8480E+06    -43.8118E+06     40.6079E+06     998.163E+03
             469     60.0623E-03     7.63473E-03     59.5750E-03     329.596E-03    -164.375E-03    -165.222E-03    -163.623E-03     328.845E-03    -165.222E-03     38.4418E-03     351.828E-03     106.817E+06     23.4375E+06    -73.9457E+06    -90.7540E+06    -83.4173E+06    -81.2824E+06     23.4375E+06     755.267E+03
             470     59.9167E-03     6.78562E-03     59.5312E-03     329.862E-03    -164.616E-03    -165.245E-03    -164.025E-03     329.270E-03    -165.245E-03     34.1227E-03     348.977E-03     114.077E+06     4.22769E+06    -95.5885E+06    -119.706E+06    -95.6208E+06    -119.674E+06     4.22769E+06     726.151E+03
             471     59.7888E-03     5.93794E-03     59.4932E-03     330.075E-03    -164.857E-03    -165.218E-03    -164.414E-03     329.632E-03    -165.218E-03     29.4710E-03     345.978E-03     122.876E+06    -16.6380E+06    -108.704E+06    -155.606E+06    -108.730E+06    -155.580E+06    -16.6380E+06     817.631E+03
             472     59.6773E-03     5.09042E-03     59.4598E-03     329.746E-03    -164.572E-03    -165.174E-03    -164.265E-03     329.439E-03    -165.174E-03     24.4788E-03     342.425E-03     133.013E+06    -39.9720E+06    -121.700E+06    -193.114E+06    -121.717E+06    -193.096E+06    -39.9720E+06     668.398E+03
             473     59.5850E-03     4.24100E-03     59.4339E-03     329.383E-03    -164.215E-03    -165.167E-03    -164.020E-03     329.187E-03    -165.167E-03     19.4813E-03     338.887E-03     142.205E+06    -66.4039E+06    -134.748E+06    -229.530E+06    -134.756E+06    -229.522E+06    -66.4039E+06     477.789E+03
             474     59.5126E-03     3.39164E-03     59.4159E-03     329.528E-03    -164.331E-03    -165.197E-03    -164.223E-03     329.420E-03    -165.197E-03     14.3172E-03     336.008E-03     150.881E+06    -95.3088E+06    -148.042E+06    -265.223E+06    -148.043E+06    -265.222E+06    -95.3088E+06     191.759E+03
             475     59.4580E-03     2.54411E-03     59.4035E-03     330.017E-03    -164.834E-03    -165.183E-03    -164.787E-03     329.967E-03    -165.180E-03     9.71298E-03     333.868E-03     160.369E+06    -125.790E+06    -161.370E+06    -300.685E+06    -161.371E+06    -300.684E+06    -125.790E+06     249.053E+03
             476     59.4202E-03     1.69654E-03     59.3959E-03     330.241E-03    -165.022E-03    -165.220E-03    -165.197E-03     330.221E-03    -165.024E-03     6.11897E-03     332.089E-03     171.448E+06    -153.544E+06    -172.180E+06    -333.365E+06    -172.187E+06    -333.358E+06    -153.544E+06     127.540E+03
             477     59.3974E-03     848.185E-06     59.3914E-03     329.717E-03    -164.496E-03    -165.221E-03    -164.910E-03     329.711E-03    -164.801E-03     2.95422E-03     330.326E-03     182.450E+06    -171.981E+06    -180.289E+06    -358.409E+06    -179.099E+06    -358.330E+06    -173.249E+06    -175.254E+03
             478     60.4969E-03     14.4280E-03     58.7513E-03     331.296E-03    -164.704E-03    -166.592E-03    -163.647E-03     328.654E-03    -165.007E-03     70.1139E-03     400.263E-03     138.242E+06     133.773E+06     125.532E+06    -8.39846E+06    -8.39569E+06     125.530E+06     133.773E+06    -301.841E+03
             479     60.1878E-03     13.5797E-03     58.6359E-03     331.527E-03    -164.899E-03    -166.629E-03    -163.702E-03     328.648E-03    -164.946E-03     74.2885E-03     400.386E-03     128.231E+06     113.718E+06     109.925E+06    -16.3496E+06    -16.3466E+06     109.922E+06     113.718E+06     167.845E+03
             480     59.9270E-03     12.7307E-03     58.5591E-03     329.723E-03    -164.711E-03    -165.013E-03    -162.912E-03     327.828E-03    -164.915E-03     61.1154E-03     383.402E-03     121.427E+06     98.1499E+06     96.2736E+06    -24.2018E+06    -24.2000E+06     97.5690E+06     96.8527E+06     359.305E+03
             481     59.6757E-03     11.8799E-03     58.4812E-03     329.463E-03    -164.534E-03    -164.929E-03    -162.799E-03     327.727E-03    -164.929E-03     58.3419E-03     376.546E-03     120.681E+06     92.0840E+06     84.5916E+06    -32.0941E+06    -32.0926E+06     92.0825E+06     84.5916E+06     298.804E+03
             482     59.4439E-03     11.0299E-03     58.4116E-03     329.496E-03    -164.507E-03    -164.990E-03    -163.085E-03     328.074E-03    -164.990E-03     52.8861E-03     368.983E-03     124.378E+06     86.7220E+06     80.3619E+06    -40.5976E+06    -40.5957E+06     86.6439E+06     80.4380E+06     345.326E+03
             483     59.2304E-03     10.1824E-03     58.3486E-03     329.620E-03    -164.555E-03    -165.065E-03    -163.338E-03     328.403E-03    -165.065E-03     48.9399E-03     363.555E-03     117.944E+06     73.8856E+06     57.4199E+06    -50.4142E+06    -50.4088E+06     57.5034E+06     73.7968E+06     526.430E+03
             484     59.0316E-03     9.33204E-03     58.2893E-03     329.723E-03    -164.604E-03    -165.120E-03    -163.553E-03     328.673E-03    -165.120E-03     45.4982E-03     359.051E-03     104.496E+06     56.5419E+06     1.67926E+06    -60.8766E+06    -60.8450E+06     1.64763E+06     56.5419E+06     943.058E+03
             485     58.8493E-03     8.48370E-03     58.2346E-03     329.763E-03    -164.600E-03    -165.163E-03    -163.702E-03     328.865E-03    -165.163E-03     42.0551E-03     355.318E-03     101.515E+06     40.7113E+06    -43.7401E+06    -71.3919E+06    -71.3493E+06    -43.7828E+06     40.7113E+06     913.213E+03
             486     58.6849E-03     7.63504E-03     58.1861E-03     329.734E-03    -164.544E-03    -165.190E-03    -163.804E-03     328.994E-03    -165.190E-03     38.1758E-03     351.965E-03     107.035E+06     23.9359E+06    -73.5724E+06    -90.5635E+06    -82.7227E+06    -81.4132E+06     23.9359E+06     1.03684E+06
             487     58.5357E-03     6.78645E-03     58.1409E-03     329.780E-03    -164.578E-03    -165.201E-03    -163.986E-03     329.187E-03    -165.201E-03     34.1361E-03     348.823E-03     114.379E+06     4.65027E+06    -95.3479E+06    -119.725E+06    -95.4375E+06    -119.635E+06     4.65027E+06     1.25900E+06
             488     58.4044E-03     5.93820E-03     58.1018E-03     329.811E-03    -164.623E-03    -165.188E-03    -164.164E-03     329.352E-03    -165.188E-03     30.0598E-03     345.699E-03     122.533E+06    -16.4306E+06    -108.264E+06    -154.954E+06    -108.304E+06    -154.914E+06    -16.4306E+06     1.01004E+06
             489     58.2930E-03     5.08970E-03     58.0704E-03     329.692E-03    -164.526E-03    -165.166E-03    -164.200E-03     329.366E-03    -165.166E-03     25.2278E-03     342.414E-03     133.047E+06    -39.6592E+06    -120.926E+06    -192.855E+06    -120.939E+06    -192.842E+06    -39.6592E+06     542.511E+03
             490     58.2006E-03     4.24113E-03     58.0459E-03     329.449E-03    -164.289E-03    -165.160E-03    -164.093E-03     329.253E-03    -165.160E-03     19.4261E-03     338.959E-03     142.739E+06    -65.6949E+06    -134.429E+06    -229.495E+06    -134.432E+06    -229.492E+06    -65.6949E+06     406.744E+03
             491     58.1250E-03     3.39287E-03     58.0259E-03     329.484E-03    -164.303E-03    -165.180E-03    -164.200E-03     329.380E-03    -165.180E-03     14.0414E-03     335.942E-03     151.188E+06    -95.1827E+06    -148.648E+06    -265.569E+06    -148.651E+06    -265.565E+06    -95.1827E+06     542.758E+03
             492     58.0697E-03     2.54387E-03     58.0139E-03     329.933E-03    -164.761E-03    -165.171E-03    -164.712E-03     329.883E-03    -165.171E-03     9.72418E-03     333.788E-03     159.837E+06    -125.797E+06    -161.416E+06    -300.146E+06    -161.419E+06    -300.144E+06    -125.797E+06     247.524E+03
             493     58.0297E-03     1.69574E-03     58.0050E-03     330.162E-03    -164.939E-03    -165.222E-03    -165.071E-03     330.142E-03    -165.071E-03     5.91977E-03     332.003E-03     171.018E+06    -153.091E+06    -171.627E+06    -332.442E+06    -171.631E+06    -332.439E+06    -153.091E+06     143.060E+03
             494     58.0085E-03     848.806E-06     58.0023E-03     329.898E-03    -164.555E-03    -165.343E-03    -164.701E-03     329.893E-03    -165.191E-03     2.43611E-03     330.512E-03     183.258E+06    -171.477E+06    -180.919E+06    -359.247E+06    -178.655E+06    -359.174E+06    -173.813E+06     42.3493E+03
             495     59.1466E-03     14.4290E-03     57.3596E-03     331.319E-03    -164.807E-03    -166.511E-03    -163.617E-03     328.621E-03    -165.004E-03     70.8356E-03     400.454E-03     138.573E+06     134.261E+06     125.787E+06    -8.35144E+06    -8.34826E+06     125.784E+06     134.261E+06    -29.3245E+03
             496     58.8346E-03     13.5799E-03     57.2459E-03     331.432E-03    -164.901E-03    -166.531E-03    -163.573E-03     328.522E-03    -164.948E-03     74.5526E-03     400.453E-03     128.136E+06     113.687E+06     109.123E+06    -16.6544E+06    -16.6504E+06     109.118E+06     113.687E+06     36.6464E+03
             497     58.5709E-03     12.7294E-03     57.1709E-03     329.890E-03    -164.815E-03    -165.075E-03    -163.075E-03     327.990E-03    -164.915E-03     61.1964E-03     383.611E-03     121.770E+06     98.0632E+06     95.4027E+06    -25.0133E+06    -25.0120E+06     97.0272E+06     96.4374E+06     65.3937E+03
             498     58.3148E-03     11.8806E-03     57.0917E-03     329.728E-03    -164.721E-03    -165.007E-03    -163.079E-03     327.990E-03    -164.911E-03     58.3895E-03     376.909E-03     121.279E+06     91.8038E+06     84.0124E+06    -33.1187E+06    -33.1175E+06     91.8026E+06     84.0124E+06     241.427E+03
             499     58.0800E-03     11.0316E-03     57.0227E-03     329.457E-03    -164.486E-03    -164.971E-03    -163.090E-03     328.050E-03    -164.960E-03     52.6244E-03     369.023E-03     125.348E+06     86.4162E+06     79.9694E+06    -41.9192E+06    -41.9129E+06     86.4099E+06     79.9694E+06     569.646E+03
             500     57.8604E-03     10.1809E-03     56.9576E-03     329.556E-03    -164.522E-03    -165.034E-03    -163.303E-03     328.337E-03    -165.034E-03     48.9919E-03     363.517E-03     119.143E+06     73.4929E+06     56.7680E+06    -52.1159E+06    -52.1063E+06     57.0397E+06     73.2117E+06     614.457E+03
             501     57.6604E-03     9.33359E-03     56.9000E-03     329.699E-03    -164.617E-03    -165.083E-03    -163.572E-03     328.654E-03    -165.083E-03     45.3738E-03     359.045E-03     104.948E+06     55.5522E+06     1.98358E+06    -62.6991E+06    -62.6941E+06     1.97858E+06     55.5522E+06     369.007E+03
             502     57.4745E-03     8.48390E-03     56.8448E-03     329.607E-03    -164.480E-03    -165.126E-03    -163.588E-03     328.714E-03    -165.126E-03     41.9204E-03     355.165E-03     101.859E+06     39.6075E+06    -43.7861E+06    -73.1173E+06    -73.1034E+06    -43.8000E+06     39.6075E+06     264.048E+03
             503     57.3065E-03     7.63539E-03     56.7956E-03     329.679E-03    -164.520E-03    -165.158E-03    -163.766E-03     328.924E-03    -165.158E-03     38.5517E-03     351.846E-03     107.124E+06     22.8445E+06    -74.9406E+06    -91.6306E+06    -83.9321E+06    -82.6390E+06     22.8445E+06     678.154E+03
             504     57.1555E-03     6.78717E-03     56.7511E-03     329.648E-03    -164.470E-03    -165.178E-03    -163.857E-03     329.035E-03    -165.178E-03     34.7239E-03     348.646E-03     113.993E+06     4.57864E+06    -95.1176E+06    -119.343E+06    -95.1977E+06    -119.263E+06     4.57864E+06     825.368E+03
             505     57.0231E-03     5.93759E-03     56.7131E-03     329.492E-03    -164.292E-03    -165.200E-03    -163.836E-03     329.036E-03    -165.200E-03     29.8545E-03     345.397E-03     122.674E+06    -15.4565E+06    -106.946E+06    -154.215E+06    -106.977E+06    -154.183E+06    -15.4565E+06     386.060E+03
             506     56.9080E-03     5.08859E-03     56.6800E-03     329.503E-03    -164.275E-03    -165.228E-03    -163.962E-03     329.190E-03    -165.228E-03     24.7244E-03     342.225E-03     133.617E+06    -39.0482E+06    -120.414E+06    -192.953E+06    -120.418E+06    -192.950E+06    -39.0482E+06     466.181E+03
             507     56.8137E-03     4.24131E-03     56.6551E-03     329.730E-03    -164.497E-03    -165.233E-03    -164.292E-03     329.525E-03    -165.233E-03     19.9903E-03     339.236E-03     143.352E+06    -65.5363E+06    -134.649E+06    -230.039E+06    -134.658E+06    -230.030E+06    -65.5363E+06     873.920E+03
             508     56.7395E-03     3.39255E-03     56.6380E-03     329.954E-03    -164.704E-03    -165.250E-03    -164.653E-03     329.837E-03    -165.184E-03     14.9417E-03     336.400E-03     151.216E+06    -94.7325E+06    -147.983E+06    -265.086E+06    -147.991E+06    -265.077E+06    -94.7325E+06     947.013E+03
             509     56.6805E-03     2.54443E-03     56.6233E-03     329.853E-03    -164.672E-03    -165.181E-03    -164.686E-03     329.801E-03    -165.115E-03     9.83472E-03     333.676E-03     159.590E+06    -124.903E+06    -160.007E+06    -298.836E+06    -160.014E+06    -298.830E+06    -124.903E+06     670.710E+03
             510     56.6412E-03     1.69654E-03     56.6158E-03     329.777E-03    -164.636E-03    -165.141E-03    -164.618E-03     329.758E-03    -165.141E-03     5.71702E-03     331.618E-03     171.748E+06    -153.216E+06    -170.669E+06    -332.797E+06    -170.673E+06    -332.793E+06    -153.216E+06     133.013E+03
             511     56.6189E-03     847.015E-06     56.6126E-03     330.316E-03    -164.787E-03    -165.529E-03    -165.008E-03     330.311E-03    -165.303E-03     2.40195E-03     330.933E-03     184.353E+06    -170.425E+06    -179.286E+06    -359.008E+06    -176.994E+06    -358.964E+06    -172.762E+06     340.719E+03
             512     57.8010E-03     14.4283E-03     55.9713E-03     330.986E-03    -164.771E-03    -166.215E-03    -163.261E-03     328.272E-03    -165.011E-03     70.9489E-03     400.289E-03     137.770E+06     134.010E+06     125.012E+06    -8.03645E+06    -8.03447E+06     125.010E+06     134.010E+06     185.271E+03
             513     57.4816E-03     13.5782E-03     55.8549E-03     331.235E-03    -164.975E-03    -166.259E-03    -163.344E-03     328.319E-03    -164.975E-03     74.5079E-03     400.536E-03     127.419E+06     113.680E+06     108.714E+06    -16.1174E+06    -16.1137E+06     108.710E+06     113.680E+06     393.217E+03
             514     57.2161E-03     12.7304E-03     55.7819E-03     330.291E-03    -164.942E-03    -165.349E-03    -163.438E-03     328.380E-03    -164.942E-03     61.4086E-03     384.105E-03     122.006E+06     98.7325E+06     96.6720E+06    -24.2871E+06    -24.2824E+06     97.9193E+06     97.4805E+06     473.492E+03
             515     56.9545E-03     11.8806E-03     55.7016E-03     330.233E-03    -164.910E-03    -165.323E-03    -163.547E-03     328.457E-03    -164.910E-03     59.0935E-03     377.394E-03     121.306E+06     91.6281E+06     84.4034E+06    -33.0575E+06    -33.0508E+06     91.6214E+06     84.4034E+06     748.330E+03
             516     56.7163E-03     11.0314E-03     55.6331E-03     329.711E-03    -164.696E-03    -165.015E-03    -163.360E-03     328.289E-03    -164.930E-03     52.9109E-03     369.399E-03     124.932E+06     85.9142E+06     79.5364E+06    -41.9832E+06    -41.9736E+06     85.6918E+06     79.7491E+06     692.262E+03
             517     56.4945E-03     10.1830E-03     55.5691E-03     329.370E-03    -164.373E-03    -164.997E-03    -163.146E-03     328.144E-03    -164.997E-03     49.1246E-03     363.443E-03     118.593E+06     73.7967E+06     57.2192E+06    -51.2414E+06    -51.2350E+06     57.4052E+06     73.6042E+06     346.705E+03
             518     56.2876E-03     9.33257E-03     55.5085E-03     329.482E-03    -164.422E-03    -165.060E-03    -163.359E-03     328.419E-03    -165.060E-03     45.7404E-03     358.931E-03     104.392E+06     56.0951E+06     2.54903E+06    -61.3515E+06    -61.3494E+06     2.54693E+06     56.0951E+06     35.8247E+03
             519     56.1018E-03     8.48478E-03     55.4564E-03     329.635E-03    -164.523E-03    -165.112E-03    -163.612E-03     328.724E-03    -165.112E-03     42.3677E-03     355.200E-03     101.513E+06     39.8436E+06    -44.1078E+06    -72.1439E+06    -72.1285E+06    -44.1232E+06     39.8436E+06     125.644E+03
             520     55.9290E-03     7.63514E-03     55.4054E-03     329.485E-03    -164.333E-03    -165.152E-03    -163.574E-03     328.726E-03    -165.152E-03     38.6235E-03     351.620E-03     106.915E+06     22.7274E+06    -75.1698E+06    -91.3495E+06    -83.5259E+06    -82.9935E+06     22.7274E+06     33.4837E+03
             521     55.7762E-03     6.78580E-03     55.3619E-03     329.484E-03    -164.290E-03    -165.195E-03    -163.677E-03     328.872E-03    -165.195E-03     34.7045E-03     348.519E-03     113.668E+06     4.42599E+06    -95.1880E+06    -119.076E+06     -95.214E+06    -119.050E+06     4.42599E+06    -91.3074E+03
             522     55.6401E-03     5.93837E-03     55.3223E-03     329.529E-03    -164.297E-03    -165.232E-03    -163.829E-03     329.060E-03    -165.232E-03     30.2531E-03     345.436E-03     122.565E+06    -15.9460E+06    -107.932E+06    -154.437E+06    -107.941E+06    -154.428E+06    -15.9460E+06     135.651E+03
             523     55.5256E-03     5.09018E-03     55.2918E-03     329.475E-03    -164.202E-03    -165.273E-03    -163.881E-03     329.154E-03    -165.273E-03     24.9744E-03     342.158E-03     133.472E+06    -39.6611E+06    -121.349E+06    -193.361E+06    -121.354E+06    -193.357E+06    -39.6611E+06     542.666E+03
             524     55.4285E-03     4.23904E-03     55.2662E-03     329.760E-03    -164.463E-03    -165.297E-03    -164.263E-03     329.559E-03    -165.297E-03     19.6964E-03     339.214E-03     143.022E+06    -66.1439E+06    -135.034E+06    -230.250E+06    -135.043E+06    -230.240E+06    -66.1439E+06     703.382E+03
             525     55.3497E-03     3.39195E-03     55.2456E-03     330.095E-03    -164.774E-03    -165.322E-03    -164.728E-03     329.984E-03    -165.256E-03     14.6168E-03     336.522E-03     150.342E+06    -95.2645E+06    -148.189E+06    -264.638E+06    -148.195E+06    -264.632E+06    -95.2645E+06     522.517E+03
             526     55.2930E-03     2.54481E-03     55.2344E-03     329.983E-03    -164.723E-03    -165.260E-03    -164.735E-03     329.929E-03    -165.194E-03     10.0988E-03     333.810E-03     159.193E+06    -124.912E+06    -159.936E+06    -298.413E+06    -159.941E+06    -298.408E+06    -124.912E+06     718.310E+03
             527     55.2530E-03     1.69552E-03     55.2270E-03     330.012E-03    -164.752E-03    -165.260E-03    -164.794E-03     329.991E-03    -165.197E-03     6.09795E-03     331.860E-03     171.768E+06    -152.667E+06    -169.491E+06    -331.988E+06    -169.494E+06    -331.984E+06    -152.667E+06     564.995E+03
             528     55.2291E-03     848.120E-06     55.2226E-03     330.369E-03    -164.758E-03    -165.611E-03    -165.421E-03     330.364E-03    -164.943E-03     2.63201E-03     330.976E-03     183.689E+06    -170.726E+06    -178.392E+06    -358.104E+06    -176.553E+06    -358.088E+06    -172.580E+06    -363.794E+03
             529     56.4563E-03     14.4287E-03     54.5814E-03     330.894E-03    -164.799E-03    -166.095E-03    -163.223E-03     328.236E-03    -165.012E-03     70.2689E-03     400.212E-03     137.281E+06     133.393E+06     124.096E+06    -8.29898E+06    -8.29859E+06     124.096E+06     133.393E+06     63.0605E+03
             530     56.1340E-03     13.5792E-03     54.4668E-03     331.004E-03    -164.934E-03    -166.071E-03    -163.133E-03     328.116E-03    -164.983E-03     74.2970E-03     400.452E-03     126.906E+06     112.984E+06     107.973E+06    -16.2990E+06    -16.2972E+06     107.971E+06     112.984E+06     331.144E+03
             531     55.8599E-03     12.7282E-03     54.3905E-03     330.283E-03    -164.909E-03    -165.374E-03    -163.422E-03     328.379E-03    -164.958E-03     61.2875E-03     384.216E-03     121.439E+06     98.2342E+06     97.0679E+06    -23.7822E+06    -23.7751E+06     97.9499E+06     97.3451E+06     863.803E+03
             532     55.5962E-03     11.8802E-03     54.3120E-03     330.272E-03    -164.857E-03    -165.415E-03    -163.585E-03     328.514E-03    -164.929E-03     58.8187E-03     377.446E-03     120.654E+06     91.8830E+06     85.0942E+06    -31.9434E+06    -31.9342E+06     91.8737E+06     85.0942E+06     943.597E+03
             533     55.3527E-03     11.0316E-03     54.2423E-03     329.774E-03    -164.751E-03    -165.023E-03    -163.366E-03     328.314E-03    -164.948E-03     53.6222E-03     369.505E-03     124.620E+06     86.5100E+06     80.1575E+06    -41.0683E+06    -41.0633E+06     86.2922E+06     80.3702E+06     427.339E+03
             534     55.1280E-03     10.1824E-03     54.1795E-03     329.634E-03    -164.582E-03    -165.052E-03    -163.356E-03     328.364E-03    -165.008E-03     50.0042E-03     363.725E-03     118.451E+06     74.0344E+06     57.6741E+06    -50.8187E+06    -50.8136E+06     57.9091E+06     73.7943E+06     428.783E+03
             535     54.9198E-03     9.33347E-03     54.1209E-03     329.470E-03    -164.360E-03    -165.110E-03    -163.321E-03     328.387E-03    -165.066E-03     46.1491E-03     358.886E-03     104.615E+06     56.1383E+06     3.15357E+06    -61.5299E+06    -61.5231E+06     3.14677E+06     56.1383E+06     132.999E+03
             536     54.7261E-03     8.48337E-03     54.0646E-03     329.518E-03    -164.390E-03    -165.128E-03    -163.472E-03     328.600E-03    -165.128E-03     42.5206E-03     355.123E-03     101.672E+06     39.5156E+06    -44.7203E+06    -72.3922E+06    -72.3655E+06    -44.7471E+06     39.5156E+06    -230.288E+03
             537     54.5542E-03     7.63577E-03     54.0172E-03     329.649E-03    -164.478E-03    -165.171E-03    -163.709E-03     328.880E-03    -165.171E-03     38.8964E-03     351.846E-03     106.844E+06     22.9163E+06    -75.8603E+06    -90.4692E+06    -83.4543E+06    -82.8752E+06     22.9163E+06     150.977E+03
             538     54.3969E-03     6.78703E-03     53.9718E-03     329.390E-03    -164.177E-03    -165.213E-03    -163.567E-03     328.780E-03    -165.213E-03     34.6156E-03     348.393E-03     113.440E+06     4.03198E+06    -95.5674E+06    -119.013E+06    -95.6339E+06    -118.947E+06     4.03198E+06     114.049E+03
             539     54.2593E-03     5.93669E-03     53.9336E-03     329.312E-03    -164.034E-03    -165.278E-03    -163.571E-03     328.849E-03    -165.278E-03     30.0897E-03     345.193E-03     122.181E+06    -17.0039E+06    -108.266E+06    -155.176E+06    -108.277E+06    -155.165E+06    -17.0039E+06     135.860E+03
             540     54.1409E-03     5.08727E-03     53.9014E-03     329.897E-03    -164.583E-03    -165.313E-03    -164.261E-03     329.574E-03    -165.313E-03     25.0753E-03     342.584E-03     133.002E+06    -40.3535E+06    -121.522E+06    -193.536E+06    -121.526E+06    -193.533E+06    -40.3535E+06     375.735E+03
             541     54.0427E-03     4.24212E-03     53.8759E-03     330.027E-03    -164.745E-03    -165.282E-03    -164.547E-03     329.829E-03    -165.282E-03     19.5867E-03     339.446E-03     142.582E+06    -66.1002E+06    -134.971E+06    -229.735E+06    -134.975E+06    -229.731E+06    -66.1002E+06     331.245E+03
             542     53.9632E-03     3.39244E-03     53.8565E-03     329.698E-03    -164.436E-03    -165.262E-03    -164.330E-03     329.592E-03    -165.262E-03     14.2412E-03     336.126E-03     149.926E+06    -95.2365E+06    -148.474E+06    -264.246E+06    -148.476E+06    -264.244E+06    -95.2365E+06     55.1865E+03
             543     53.9043E-03     2.54275E-03     53.8443E-03     329.992E-03    -164.720E-03    -165.272E-03    -164.671E-03     329.944E-03    -165.272E-03     9.50183E-03     333.859E-03     158.964E+06    -125.470E+06    -160.564E+06    -298.742E+06    -160.571E+06    -298.735E+06    -125.470E+06    -383.856E+03
             544     53.8633E-03     1.69606E-03     53.8366E-03     330.349E-03    -165.052E-03    -165.298E-03    -165.096E-03     330.330E-03    -165.235E-03     5.89575E-03     332.207E-03     171.080E+06    -151.976E+06    -170.478E+06    -331.414E+06    -170.488E+06    -331.404E+06    -151.976E+06     71.6010E+03
             545     53.8387E-03     848.117E-06     53.8321E-03     330.295E-03    -164.458E-03    -165.837E-03    -165.750E-03     330.288E-03    -164.539E-03     2.90841E-03     330.905E-03     182.452E+06    -170.220E+06    -179.469E+06    -357.108E+06    -177.621E+06    -357.102E+06    -172.074E+06     860.238E+03
             546     55.1127E-03     14.4285E-03     53.1905E-03     330.966E-03    -164.815E-03    -166.151E-03    -163.351E-03     328.354E-03    -165.004E-03     69.8140E-03     400.105E-03     137.292E+06     133.455E+06     124.392E+06    -8.14297E+06    -8.14147E+06     124.391E+06     133.455E+06     44.6033E+03
             547     54.7884E-03     13.5785E-03     53.0791E-03     331.125E-03    -164.915E-03    -166.210E-03    -163.307E-03     328.272E-03    -164.964E-03     74.0202E-03     400.281E-03     126.725E+06     113.144E+06     107.866E+06    -16.0974E+06    -16.0911E+06     107.860E+06     113.144E+06     307.874E+03
             548     54.5072E-03     12.7302E-03     52.9998E-03     330.048E-03    -164.845E-03    -165.204E-03    -163.221E-03     328.157E-03    -164.937E-03     61.0787E-03     383.748E-03     121.342E+06     97.9794E+06     95.8377E+06    -24.4156E+06    -24.4072E+06     97.2184E+06     96.5902E+06     774.791E+03
             549     54.2392E-03     11.8805E-03     52.9221E-03     329.767E-03    -164.668E-03    -165.099E-03    -163.117E-03     328.047E-03    -164.930E-03     58.1568E-03     376.800E-03     120.599E+06     91.8319E+06     84.4577E+06    -32.2180E+06    -32.2124E+06     91.8262E+06     84.4577E+06     613.448E+03
             550     53.9921E-03     11.0303E-03     52.8533E-03     329.426E-03    -164.443E-03    -164.983E-03    -162.992E-03     327.975E-03    -164.983E-03     53.4153E-03     368.997E-03     124.590E+06     86.8856E+06     80.5208E+06    -40.6619E+06    -40.6569E+06     86.8806E+06     80.5208E+06     693.239E+03
             551     53.7618E-03     10.1810E-03     52.7890E-03     329.694E-03    -164.589E-03    -165.106E-03    -163.363E-03     328.425E-03    -165.062E-03     49.9976E-03     363.680E-03     118.649E+06     74.2836E+06     57.8901E+06    -50.7593E+06    -50.7524E+06     58.2629E+06     73.9039E+06     491.203E+03
             552     53.5495E-03     9.33292E-03     52.7299E-03     329.823E-03    -164.670E-03    -165.154E-03    -163.622E-03     328.732E-03    -165.110E-03     46.3636E-03     359.179E-03     104.577E+06     56.4527E+06     3.78657E+06    -61.3192E+06    -61.2821E+06     3.74944E+06     56.4527E+06     484.766E+03
             553     53.3563E-03     8.48447E-03     52.6774E-03     329.569E-03    -164.407E-03    -165.162E-03    -163.479E-03     328.640E-03    -165.162E-03     42.7707E-03     355.110E-03     101.652E+06     39.5409E+06    -44.4772E+06    -72.3281E+06    -72.2791E+06    -44.5263E+06     39.5409E+06     290.924E+03
             554     53.1762E-03     7.63402E-03     52.6254E-03     329.556E-03    -164.340E-03    -165.216E-03    -163.561E-03     328.776E-03    -165.216E-03     39.1555E-03     351.775E-03     106.489E+06     22.3719E+06    -76.3216E+06    -90.4806E+06    -83.6255E+06    -83.1766E+06     22.3719E+06    -190.670E+03
             555     53.0189E-03     6.78600E-03     52.5828E-03     329.797E-03    -164.440E-03    -165.358E-03    -163.932E-03     329.182E-03    -165.250E-03     34.7747E-03     348.877E-03     113.408E+06     3.94991E+06    -95.2553E+06    -119.204E+06    -95.3716E+06    -119.088E+06     3.94991E+06    -79.2935E+03
             556     52.8795E-03     5.93779E-03     52.5450E-03     329.906E-03    -164.552E-03    -165.354E-03    -164.215E-03     329.462E-03    -165.246E-03     29.4944E-03     345.809E-03     122.335E+06    -16.9089E+06    -107.971E+06    -155.395E+06    -107.984E+06    -155.381E+06    -16.9089E+06     95.3737E+03
             557     52.7568E-03     5.08982E-03     52.5107E-03     329.690E-03    -164.455E-03    -165.234E-03    -164.160E-03     329.394E-03    -165.234E-03     24.0125E-03     342.342E-03     133.014E+06    -40.2036E+06    -121.175E+06    -193.392E+06    -121.176E+06    -193.391E+06    -40.2036E+06     19.0258E+03
             558     52.6557E-03     4.23932E-03     52.4848E-03     329.555E-03    -164.313E-03    -165.242E-03    -164.126E-03     329.368E-03    -165.242E-03     19.0430E-03     339.064E-03     142.451E+06    -65.9105E+06    -134.640E+06    -229.406E+06    -134.643E+06    -229.403E+06    -65.9105E+06    -69.0224E+03
             559     52.5777E-03     3.39230E-03     52.4681E-03     329.792E-03    -164.544E-03    -165.248E-03    -164.435E-03     329.682E-03    -165.248E-03     14.5027E-03     336.282E-03     150.109E+06    -93.9673E+06    -147.238E+06    -263.169E+06    -147.241E+06    -263.166E+06    -93.9673E+06    -104.155E+03
             560     52.5155E-03     2.54490E-03     52.4538E-03     330.055E-03    -164.841E-03    -165.215E-03    -164.789E-03     330.004E-03    -165.215E-03     9.69451E-03     333.907E-03     159.947E+06    -124.474E+06    -160.028E+06    -298.922E+06    -160.035E+06    -298.914E+06    -124.474E+06    -372.937E+03
             561     52.4739E-03     1.69584E-03     52.4465E-03     330.115E-03    -164.952E-03    -165.162E-03    -164.936E-03     330.098E-03    -165.162E-03     5.52792E-03     331.982E-03     171.213E+06    -153.117E+06    -171.535E+06    -332.630E+06    -171.547E+06    -332.619E+06    -153.117E+06    -146.954E+03
             562     52.4495E-03     847.532E-06     52.4427E-03     330.192E-03    -164.453E-03    -165.739E-03    -165.304E-03     330.186E-03    -164.883E-03     3.15974E-03     330.806E-03     181.248E+06    -171.274E+06    -179.415E+06    -356.441E+06    -178.207E+06    -356.432E+06    -172.491E+06    -192.542E+03
             563     53.7735E-03     14.4287E-03     51.8015E-03     331.123E-03    -164.751E-03    -166.372E-03    -163.512E-03     328.506E-03    -164.994E-03     69.8005E-03     400.200E-03     136.934E+06     133.371E+06     124.209E+06    -7.91355E+06    -7.90557E+06     124.201E+06     133.371E+06     336.295E+03
             564     53.4427E-03     13.5800E-03     51.6885E-03     331.306E-03    -164.888E-03    -166.418E-03    -163.504E-03     328.445E-03    -164.941E-03     74.0777E-03     400.276E-03     126.378E+06     112.583E+06     107.506E+06    -16.2189E+06    -16.2064E+06     107.493E+06     112.583E+06     714.631E+03
             565     53.1575E-03     12.7298E-03     51.6108E-03     329.698E-03    -164.679E-03    -165.019E-03    -162.854E-03     327.775E-03    -164.921E-03     61.5437E-03     383.324E-03     121.133E+06     98.1196E+06     95.7759E+06    -24.1635E+06    -24.1579E+06     97.4180E+06     96.4719E+06     509.700E+03
             566     52.8848E-03     11.8801E-03     51.5331E-03     329.618E-03    -164.599E-03    -165.019E-03    -162.922E-03     327.857E-03    -164.934E-03     58.7937E-03     376.621E-03     120.278E+06     91.5126E+06     84.0947E+06    -32.2486E+06    -32.2456E+06     91.5096E+06     84.0947E+06     364.277E+03
             567     52.6331E-03     11.0311E-03     51.4641E-03     329.604E-03    -164.529E-03    -165.074E-03    -163.181E-03     328.171E-03    -164.990E-03     53.1012E-03     369.014E-03     124.469E+06     86.8513E+06     80.4580E+06    -40.6021E+06    -40.5973E+06     86.8466E+06     80.4580E+06     625.003E+03
             568     52.3981E-03     10.1817E-03     51.3994E-03     329.338E-03    -164.261E-03    -165.077E-03    -163.026E-03     328.102E-03    -165.077E-03     49.3004E-03     363.194E-03     118.465E+06     75.2928E+06     58.4591E+06    -49.7236E+06    -49.7168E+06     59.0754E+06     74.6698E+06     462.310E+03
             569     52.1811E-03     9.33155E-03     51.3399E-03     329.596E-03    -164.444E-03    -165.153E-03    -163.370E-03     328.523E-03    -165.153E-03     45.9799E-03     358.897E-03     103.948E+06     57.0056E+06     3.72805E+06    -60.0579E+06    -60.0172E+06     3.68744E+06     57.0056E+06     392.084E+03
             570     51.9831E-03     8.48295E-03     51.2863E-03     329.960E-03    -164.759E-03    -165.201E-03    -163.843E-03     329.044E-03    -165.201E-03     42.4926E-03     355.481E-03     101.093E+06     40.5249E+06    -43.4539E+06    -70.7169E+06    -70.6764E+06    -43.4944E+06     40.5249E+06     424.484E+03
             571     51.8034E-03     7.63532E-03     51.2377E-03     329.840E-03    -164.617E-03    -165.222E-03    -163.870E-03     329.093E-03    -165.222E-03     38.3433E-03     352.064E-03     106.394E+06     23.4422E+06    -74.4900E+06    -89.7634E+06    -81.9422E+06    -82.3113E+06     23.4422E+06     90.1572E+03
             572     51.6398E-03     6.78505E-03     51.1921E-03     329.960E-03    -164.629E-03    -165.332E-03    -164.152E-03     329.376E-03    -165.224E-03     33.8868E-03     349.034E-03     113.982E+06     4.70944E+06    -94.5076E+06    -119.424E+06    -94.6227E+06    -119.309E+06     4.70944E+06     16.1962E+03
             573     51.4959E-03     5.93817E-03     51.1524E-03     329.983E-03    -164.684E-03    -165.298E-03    -164.347E-03     329.538E-03    -165.191E-03     29.5694E-03     345.936E-03     122.953E+06    -16.1960E+06    -107.663E+06    -155.369E+06    -107.674E+06    -155.358E+06    -16.1960E+06     87.9406E+03
             574     51.3750E-03     5.09028E-03     51.1222E-03     329.517E-03    -164.350E-03    -165.167E-03    -164.031E-03     329.198E-03    -165.167E-03     24.9186E-03     342.275E-03     133.042E+06    -40.0473E+06    -120.869E+06    -193.279E+06    -120.870E+06    -193.279E+06    -40.0473E+06    -6.97437E+03
             575     51.2728E-03     4.24210E-03     51.0970E-03     329.376E-03    -164.191E-03    -165.185E-03    -163.995E-03     329.180E-03    -165.185E-03     19.3614E-03     338.912E-03     141.623E+06    -66.2149E+06    -134.353E+06    -228.738E+06    -134.355E+06    -228.736E+06    -66.2149E+06    -366.913E+03
             576     51.1895E-03     3.39190E-03     51.0770E-03     329.646E-03    -164.438E-03    -165.208E-03    -164.332E-03     329.539E-03    -165.208E-03     14.3281E-03     336.125E-03     149.687E+06    -94.5648E+06    -147.625E+06    -263.292E+06    -147.628E+06    -263.289E+06    -94.5648E+06    -448.982E+03
             577     51.1273E-03     2.54361E-03     51.0640E-03     329.930E-03    -164.724E-03    -165.206E-03    -164.670E-03     329.875E-03    -165.206E-03     10.0825E-03     333.781E-03     160.786E+06    -124.248E+06    -159.889E+06    -299.565E+06    -159.891E+06    -299.562E+06    -124.248E+06     283.071E+03
             578     51.0851E-03     1.69634E-03     51.0569E-03     330.195E-03    -164.957E-03    -165.238E-03    -165.034E-03     330.175E-03    -165.140E-03     6.00734E-03     332.054E-03     171.335E+06    -152.646E+06    -169.934E+06    -331.769E+06    -169.938E+06    -331.765E+06    -152.646E+06    -23.5581E+03
             579     51.0598E-03     848.599E-06     51.0528E-03     330.096E-03    -164.668E-03    -165.428E-03    -164.760E-03     330.091E-03    -165.330E-03     2.70918E-03     330.705E-03     181.685E+06    -171.924E+06    -178.530E+06    -356.809E+06    -177.320E+06    -356.803E+06    -173.141E+06     -889.16E+03
             580     52.4369E-03     14.4286E-03     50.4127E-03     331.107E-03    -164.644E-03    -166.462E-03    -163.400E-03     328.406E-03    -165.006E-03     70.8079E-03     400.307E-03     136.514E+06     132.848E+06     123.297E+06    -8.18910E+06    -8.18163E+06     123.290E+06     132.848E+06     419.963E+03
             581     52.0975E-03     13.5792E-03     50.2967E-03     331.422E-03    -164.906E-03    -166.516E-03    -163.547E-03     328.506E-03    -164.959E-03     74.6158E-03     400.405E-03     126.200E+06     112.753E+06     107.815E+06    -15.7830E+06    -15.7752E+06     107.901E+06     112.660E+06     570.523E+03
             582     51.8126E-03     12.7300E-03     50.2244E-03     329.896E-03    -164.733E-03    -165.164E-03    -163.066E-03     327.997E-03    -164.931E-03     61.1768E-03     383.541E-03     120.904E+06     98.0622E+06     96.5841E+06    -23.5696E+06    -23.5682E+06     98.0045E+06     96.6404E+06     330.562E+03
             583     51.5308E-03     11.8794E-03     50.1428E-03     329.703E-03    -164.550E-03    -165.153E-03    -163.006E-03     327.942E-03    -164.936E-03     58.7950E-03     376.817E-03     119.955E+06     92.0876E+06     84.5883E+06    -31.3657E+06    -31.3653E+06     92.0873E+06     84.5883E+06     114.196E+03
             584     51.2742E-03     11.0307E-03     50.0736E-03     329.691E-03    -164.621E-03    -165.070E-03    -163.259E-03     328.244E-03    -164.986E-03     53.3766E-03     369.216E-03     124.027E+06     87.3865E+06     80.3842E+06    -39.8973E+06    -39.8967E+06     87.0381E+06     80.7320E+06     105.484E+03
             585     51.0362E-03     10.1818E-03     50.0103E-03     329.646E-03    -164.579E-03    -165.066E-03    -163.369E-03     328.424E-03    -165.054E-03     49.0340E-03     363.568E-03     118.033E+06     75.0764E+06     58.2878E+06    -49.5474E+06    -49.5429E+06     58.7666E+06     74.5932E+06     487.732E+03
             586     50.8159E-03     9.33252E-03     49.9516E-03     329.467E-03    -164.340E-03    -165.127E-03    -163.319E-03     328.434E-03    -165.114E-03     45.1116E-03     358.785E-03     104.108E+06     57.2824E+06     4.48950E+06    -59.9369E+06    -59.9180E+06     4.47066E+06     57.2824E+06     418.924E+03
             587     50.6109E-03     8.48331E-03     49.8949E-03     329.826E-03    -164.663E-03    -165.163E-03    -163.786E-03     328.950E-03    -165.163E-03     41.5333E-03     355.349E-03     101.366E+06     40.6779E+06    -43.2721E+06    -70.9458E+06    -70.9302E+06    -43.2878E+06     40.6779E+06     117.816E+03
             588     50.4284E-03     7.63464E-03     49.8471E-03     330.118E-03    -164.958E-03    -165.160E-03    -164.235E-03     329.395E-03    -165.160E-03     37.7761E-03     352.292E-03     106.806E+06     23.6053E+06    -74.9449E+06    -89.8767E+06    -82.4614E+06    -82.3603E+06     23.6053E+06     477.769E+03
             589     50.2621E-03     6.78855E-03     49.8015E-03     329.509E-03    -164.351E-03    -165.158E-03    -163.755E-03     328.912E-03    -165.158E-03     34.2306E-03     348.547E-03     113.989E+06     5.10947E+06    -94.3638E+06    -118.852E+06    -94.4289E+06    -118.786E+06     5.10947E+06     611.660E+03
             590     50.1170E-03     5.93804E-03     49.7640E-03     329.140E-03    -163.931E-03    -165.209E-03    -163.468E-03     328.677E-03    -165.209E-03     30.1100E-03     345.101E-03     122.732E+06    -15.9914E+06    -107.247E+06    -154.935E+06    -107.267E+06    -154.914E+06    -15.9914E+06     255.608E+03
             591     49.9915E-03     5.08829E-03     49.7319E-03     329.624E-03    -164.366E-03    -165.258E-03    -164.035E-03     329.293E-03    -165.258E-03     25.4215E-03     342.412E-03     132.819E+06    -39.9553E+06    -120.718E+06    -192.932E+06    -120.719E+06    -192.931E+06    -39.9553E+06     72.3875E+03
             592     49.8873E-03     4.24015E-03     49.7068E-03     329.959E-03    -164.721E-03    -165.237E-03    -164.508E-03     329.746E-03    -165.237E-03     20.3297E-03     339.470E-03     141.072E+06    -66.1639E+06    -134.215E+06    -228.074E+06    -134.216E+06    -228.073E+06    -66.1639E+06     36.1444E+03
             593     49.8041E-03     3.39342E-03     49.6883E-03     329.826E-03    -164.643E-03    -165.183E-03    -164.528E-03     329.711E-03    -165.183E-03     14.7857E-03     336.283E-03     148.864E+06    -95.8170E+06    -147.970E+06    -263.437E+06    -147.972E+06    -263.435E+06    -95.8170E+06    -99.8662E+03
             594     49.7399E-03     2.54416E-03     49.6748E-03     329.750E-03    -164.573E-03    -165.177E-03    -164.523E-03     329.700E-03    -165.177E-03     9.76446E-03     333.594E-03     160.458E+06    -125.166E+06    -160.242E+06    -300.016E+06    -160.247E+06    -300.010E+06    -125.166E+06    -307.866E+03
             595     49.6948E-03     1.69532E-03     49.6659E-03     330.051E-03    -164.748E-03    -165.303E-03    -164.826E-03     330.031E-03    -165.205E-03     5.92454E-03     331.895E-03     170.662E+06    -152.009E+06    -170.357E+06    -330.917E+06    -170.367E+06    -330.907E+06    -152.009E+06     37.8563E+03
             596     49.6702E-03     847.792E-06     49.6630E-03     330.350E-03    -164.814E-03    -165.536E-03    -165.044E-03     330.345E-03    -165.301E-03     2.58462E-03     330.976E-03     181.276E+06    -171.604E+06    -179.125E+06    -356.492E+06    -177.797E+06    -356.487E+06    -172.937E+06     363.000E+03
             597     51.1001E-03     14.4276E-03     49.0211E-03     330.836E-03    -164.549E-03    -166.287E-03    -163.094E-03     328.126E-03    -165.032E-03     71.0135E-03     400.185E-03     136.173E+06     132.653E+06     123.342E+06    -7.93049E+06    -7.92805E+06     123.340E+06     132.653E+06     147.994E+03
             598     50.7584E-03     13.5783E-03     48.9086E-03     331.517E-03    -164.996E-03    -166.521E-03    -163.620E-03     328.616E-03    -164.996E-03     74.4180E-03     400.604E-03     126.397E+06     113.111E+06     108.194E+06    -15.6340E+06    -15.6238E+06     108.277E+06     113.017E+06    -522.809E+03
             599     50.4639E-03     12.7292E-03     48.8321E-03     330.548E-03    -164.948E-03    -165.599E-03    -163.722E-03     328.671E-03    -164.948E-03     60.9119E-03     384.178E-03     120.794E+06     98.6932E+06     97.0141E+06    -22.9299E+06    -22.9194E+06     98.0873E+06     97.6095E+06    -124.390E+03
             600     50.1823E-03     11.8816E-03     48.7554E-03     330.070E-03    -164.671E-03    -165.399E-03    -163.425E-03     328.337E-03    -164.912E-03     58.3844E-03     377.168E-03     119.995E+06     92.6182E+06     84.9937E+06    -30.9074E+06    -30.8971E+06     92.6079E+06     84.9937E+06     748.080E+03
             601     49.9180E-03     11.0304E-03     48.6840E-03     329.454E-03    -164.401E-03    -165.053E-03    -163.093E-03     328.040E-03    -164.947E-03     52.7350E-03     369.038E-03     124.224E+06     87.8137E+06     80.1603E+06    -39.9548E+06    -39.9446E+06     87.4557E+06     80.5081E+06     696.752E+03
             602     49.6737E-03     10.1817E-03     48.6190E-03     329.716E-03    -164.692E-03    -165.025E-03    -163.493E-03     328.506E-03    -165.012E-03     48.8283E-03     363.779E-03     118.559E+06     74.6959E+06     57.9616E+06    -50.4953E+06    -50.4933E+06     58.6308E+06     74.0247E+06     108.526E+03
             603     49.4505E-03     9.33407E-03     48.5616E-03     329.955E-03    -164.773E-03    -165.182E-03    -163.879E-03     328.916E-03    -165.037E-03     45.2569E-03     359.337E-03     104.852E+06     57.1826E+06     4.85840E+06    -60.8472E+06    -60.8351E+06     4.84636E+06     57.1826E+06     123.743E+03
             604     49.2433E-03     8.48478E-03     48.5068E-03     329.481E-03    -164.284E-03    -165.198E-03    -163.529E-03     328.595E-03    -165.066E-03     41.7650E-03     354.989E-03     101.744E+06     40.9089E+06    -42.9027E+06    -71.2058E+06    -71.1763E+06    -42.9322E+06     40.9089E+06     470.995E+03
             605     49.0528E-03     7.63657E-03     48.4547E-03     329.122E-03    -164.001E-03    -165.121E-03    -163.249E-03     328.370E-03    -165.121E-03     38.4226E-03     351.318E-03     106.464E+06     22.8282E+06    -75.6021E+06     -90.163E+06    -83.0478E+06    -82.7173E+06     22.8282E+06     399.566E+03
             606     48.8871E-03     6.78574E-03     48.4139E-03     329.201E-03    -164.004E-03    -165.197E-03    -163.384E-03     328.581E-03    -165.197E-03     34.8752E-03     348.303E-03     113.218E+06     4.25384E+06    -94.9488E+06    -118.668E+06    -94.9688E+06    -118.648E+06     4.25384E+06     507.829E+03
             607     48.7382E-03     5.93705E-03     48.3752E-03     329.339E-03    -164.065E-03    -165.273E-03    -163.593E-03     328.866E-03    -165.273E-03     30.4014E-03     345.230E-03     122.011E+06    -15.9553E+06    -107.362E+06    -153.942E+06    -107.387E+06    -153.916E+06    -15.9553E+06     757.958E+03
             608     48.6092E-03     5.08901E-03     48.3421E-03     329.653E-03    -164.324E-03    -165.329E-03    -163.999E-03     329.328E-03    -165.329E-03     25.1741E-03     342.309E-03     132.315E+06    -39.5458E+06    -120.743E+06    -191.893E+06    -120.751E+06    -191.885E+06    -39.5458E+06     304.158E+03
             609     48.5023E-03     4.24039E-03     48.3166E-03     330.071E-03    -164.748E-03    -165.323E-03    -164.547E-03     329.869E-03    -165.323E-03     19.7830E-03     339.577E-03     141.240E+06    -65.8626E+06    -134.196E+06    -227.961E+06    -134.199E+06    -227.959E+06    -65.8626E+06    -99.0542E+03
             610     48.4161E-03     3.39143E-03     48.2971E-03     330.219E-03    -164.983E-03    -165.237E-03    -164.872E-03     330.109E-03    -165.237E-03     14.5088E-03     336.696E-03     149.144E+06    -95.0339E+06    -147.329E+06    -262.988E+06    -147.332E+06    -262.985E+06    -95.0339E+06    -24.6703E+03
             611     48.3528E-03     2.54478E-03     48.2858E-03     330.001E-03    -164.858E-03    -165.144E-03    -164.813E-03     329.950E-03    -165.137E-03     9.92026E-03     333.830E-03     160.373E+06    -124.933E+06    -159.877E+06    -299.638E+06    -159.885E+06    -299.631E+06    -124.933E+06    -16.2078E+03
             612     48.3067E-03     1.69651E-03     48.2769E-03     329.800E-03    -164.656E-03    -165.145E-03    -164.643E-03     329.780E-03    -165.138E-03     5.90278E-03     331.650E-03     170.616E+06    -152.546E+06    -171.100E+06    -331.522E+06    -171.115E+06    -331.507E+06    -152.546E+06    -61.8947E+03
             613     48.2800E-03     847.382E-06     48.2726E-03     330.276E-03    -164.853E-03    -165.423E-03    -165.131E-03     330.271E-03    -165.140E-03     2.56759E-03     330.901E-03     180.931E+06    -170.766E+06    -178.508E+06    -355.412E+06    -177.183E+06    -355.403E+06    -172.099E+06     170.683E+03
             614     49.7711E-03     14.4282E-03     47.6339E-03     330.888E-03    -164.684E-03    -166.203E-03    -163.176E-03     328.209E-03    -165.033E-03     70.5032E-03     400.272E-03     137.088E+06     133.291E+06     124.728E+06    -7.86718E+06    -7.86427E+06     124.725E+06     133.291E+06     106.829E+03
             615     49.4188E-03     13.5782E-03     47.5169E-03     331.300E-03    -164.963E-03    -166.338E-03    -163.413E-03     328.411E-03    -164.998E-03     74.2452E-03     400.625E-03     127.684E+06     113.133E+06     108.998E+06    -16.5554E+06    -16.5448E+06     109.338E+06     112.782E+06    -629.209E+03
             616     49.1207E-03     12.7297E-03     47.4425E-03     330.541E-03    -164.923E-03    -165.618E-03    -163.697E-03     328.656E-03    -164.958E-03     61.0430E-03     384.394E-03     121.299E+06     97.3606E+06     95.9038E+06    -24.6582E+06    -24.6400E+06     96.6673E+06     96.5790E+06    -993.195E+03
             617     48.8307E-03     11.8798E-03     47.3635E-03     330.621E-03    -164.911E-03    -165.710E-03    -163.958E-03     328.869E-03    -164.911E-03     58.7637E-03     377.822E-03     120.486E+06     91.1989E+06     85.4267E+06    -31.9871E+06    -31.9678E+06     91.0998E+06     85.5065E+06     406.910E+03
             618     48.5653E-03     11.0334E-03     47.2954E-03     329.902E-03    -164.608E-03    -165.294E-03    -163.565E-03     328.470E-03    -164.905E-03     53.1166E-03     369.490E-03     125.814E+06     88.7782E+06     81.7242E+06    -40.3588E+06    -40.3399E+06     88.7593E+06     81.7242E+06     1.39964E+06
             619     48.3156E-03     10.1827E-03     47.2304E-03     329.442E-03    -164.410E-03    -165.032E-03    -163.266E-03     328.218E-03    -164.952E-03     49.0782E-03     363.392E-03     119.076E+06     76.3480E+06     58.5736E+06    -49.7791E+06    -49.7694E+06     60.3563E+06     74.5557E+06     647.848E+03
             620     48.0840E-03     9.33291E-03     47.1696E-03     329.498E-03    -164.364E-03    -165.134E-03    -163.437E-03     328.439E-03    -165.002E-03     45.6556E-03     358.896E-03     103.824E+06     56.6216E+06     4.10581E+06    -60.3558E+06    -60.3525E+06     4.10247E+06     56.6216E+06    -216.647E+03
             621     47.8748E-03     8.48616E-03     47.1167E-03     329.197E-03    -163.998E-03    -165.199E-03    -163.197E-03     328.265E-03    -165.068E-03     42.8271E-03     354.825E-03     101.414E+06     40.2479E+06    -43.1670E+06    -71.6290E+06    -71.6002E+06    -43.1958E+06     40.2479E+06     251.746E+03
             622     47.6844E-03     7.63451E-03     47.0693E-03     328.892E-03    -163.731E-03    -165.161E-03    -162.949E-03     328.110E-03    -165.161E-03     39.1569E-03     351.128E-03     106.141E+06     22.8798E+06     -74.931E+06    -89.9707E+06    -82.8088E+06    -82.0929E+06     22.8798E+06     780.364E+03
             623     47.5101E-03     6.78576E-03     47.0230E-03     329.342E-03    -164.088E-03    -165.254E-03    -163.480E-03     328.734E-03    -165.254E-03     34.5410E-03     348.424E-03     112.765E+06     3.99230E+06    -94.7580E+06    -118.475E+06    -94.7770E+06    -118.456E+06     3.99230E+06     464.839E+03
             624     47.3592E-03     5.93771E-03     46.9855E-03     329.827E-03    -164.532E-03    -165.295E-03    -164.077E-03     329.372E-03    -165.295E-03     29.8849E-03     345.727E-03     121.561E+06    -16.1176E+06    -107.449E+06    -153.559E+06    -107.460E+06    -153.548E+06    -16.1176E+06     333.895E+03
             625     47.2276E-03     5.08829E-03     46.9527E-03     329.872E-03    -164.578E-03    -165.294E-03    -164.261E-03     329.555E-03    -165.294E-03     24.8657E-03     342.518E-03     131.886E+06    -38.9080E+06    -120.411E+06    -190.737E+06    -120.424E+06    -190.724E+06    -38.9080E+06     383.989E+03
             626     47.1169E-03     4.24017E-03     46.9258E-03     329.822E-03    -164.546E-03    -165.276E-03    -164.354E-03     329.630E-03    -165.276E-03     19.2480E-03     339.290E-03     140.790E+06    -65.5487E+06    -134.496E+06    -227.220E+06    -134.501E+06    -227.215E+06    -65.5487E+06     104.383E+03
             627     47.0300E-03     3.39290E-03     46.9075E-03     329.856E-03    -164.603E-03    -165.253E-03    -164.500E-03     329.753E-03    -165.253E-03     14.0428E-03     336.321E-03     149.117E+06    -95.0307E+06    -148.619E+06    -263.253E+06    -148.621E+06    -263.251E+06    -95.0307E+06    -6.79717E+03
             628     46.9637E-03     2.54365E-03     46.8947E-03     330.083E-03    -164.872E-03    -165.211E-03    -164.828E-03     330.031E-03    -165.204E-03     9.90369E-03     333.928E-03     159.006E+06    -125.507E+06    -161.330E+06    -299.076E+06    -161.334E+06    -299.072E+06    -125.507E+06     597.894E+03
             629     46.9187E-03     1.69611E-03     46.8881E-03     330.177E-03    -164.932E-03    -165.245E-03    -165.064E-03     330.156E-03    -165.092E-03     6.19473E-03     332.029E-03     169.080E+06    -153.736E+06    -171.322E+06    -330.729E+06    -171.331E+06    -330.720E+06    -153.736E+06     280.083E+03
             630     46.8909E-03     848.433E-06     46.8832E-03     329.960E-03    -164.606E-03    -165.353E-03    -164.892E-03     329.954E-03    -165.062E-03     3.21467E-03     330.559E-03     179.540E+06    -172.309E+06    -179.679E+06    -355.411E+06    -177.784E+06    -355.404E+06    -174.210E+06    -475.121E+03
             631     48.4423E-03     14.4285E-03     46.2436E-03     331.125E-03    -164.909E-03    -166.216E-03    -163.469E-03     328.480E-03    -165.011E-03     70.0784E-03     400.375E-03     138.139E+06     133.536E+06     125.149E+06    -8.59433E+06    -8.59306E+06     125.147E+06     133.536E+06    -1.23614E+03
             632     48.0857E-03     13.5791E-03     46.1285E-03     331.006E-03    -164.831E-03    -166.175E-03    -163.156E-03     328.129E-03    -164.973E-03     74.1406E-03     400.270E-03     128.615E+06     113.406E+06     109.973E+06    -16.8718E+06    -16.8696E+06     110.322E+06     113.055E+06     136.170E+03
             633     47.7787E-03     12.7286E-03     46.0520E-03     330.094E-03    -164.811E-03    -165.284E-03    -163.241E-03     328.194E-03    -164.952E-03     61.2316E-03     383.919E-03     121.382E+06     96.9081E+06     95.8823E+06    -24.9812E+06    -24.9713E+06     96.7946E+06     95.9859E+06    -383.441E+03
             634     47.4833E-03     11.8810E-03     45.9729E-03     330.490E-03    -164.926E-03    -165.564E-03    -163.800E-03     328.726E-03    -164.926E-03     58.9619E-03     377.627E-03     120.307E+06     89.8625E+06     84.0179E+06    -33.1847E+06    -33.1577E+06     89.7557E+06     84.0977E+06    -913.814E+03
             635     47.2107E-03     11.0305E-03     45.9041E-03     330.220E-03    -164.914E-03    -165.306E-03    -163.846E-03     328.765E-03    -164.919E-03     53.5811E-03     369.880E-03     125.876E+06     88.1126E+06     81.0177E+06    -41.1115E+06    -41.0849E+06     88.0860E+06     81.0177E+06    -199.276E+03
             636     46.9583E-03     10.1839E-03     45.8407E-03     329.487E-03    -164.449E-03    -165.038E-03    -163.251E-03     328.209E-03    -164.958E-03     50.1343E-03     363.454E-03     119.846E+06     76.3800E+06     59.7074E+06    -50.2290E+06    -50.2104E+06     61.5905E+06     74.4783E+06     953.166E+03
             637     46.7236E-03     9.33476E-03     45.7816E-03     328.933E-03    -163.893E-03    -165.040E-03    -162.784E-03     327.824E-03    -165.040E-03     46.6440E-03     358.346E-03     104.128E+06     56.1069E+06     5.08357E+06    -60.7672E+06    -60.7514E+06     5.06776E+06     56.1069E+06     767.217E+03
             638     46.5082E-03     8.48183E-03     45.7282E-03     329.267E-03    -164.126E-03    -165.141E-03    -163.206E-03     328.346E-03    -165.141E-03     42.5216E-03     354.909E-03     100.878E+06     38.9750E+06    -44.1472E+06    -72.2400E+06    -72.2194E+06    -44.1679E+06     38.9750E+06     211.847E+03
             639     46.3124E-03     7.63541E-03     45.6787E-03     329.612E-03    -164.408E-03    -165.204E-03    -163.650E-03     328.854E-03    -165.204E-03     38.6216E-03     351.845E-03     106.198E+06     22.6539E+06    -75.8303E+06    -89.8273E+06    -83.5841E+06    -82.0734E+06     22.6539E+06     497.311E+03
             640     46.1366E-03     6.78629E-03     45.6348E-03     329.630E-03    -164.390E-03    -165.240E-03    -163.778E-03     329.018E-03    -165.240E-03     34.6839E-03     348.688E-03     112.576E+06     4.14038E+06    -95.6524E+06    -117.469E+06    -95.6928E+06    -117.429E+06     4.14038E+06     755.296E+03
             641     45.9793E-03     5.93675E-03     45.5944E-03     329.875E-03    -164.630E-03    -165.245E-03    -164.175E-03     329.420E-03    -165.245E-03     29.8493E-03     345.791E-03     120.125E+06    -17.0807E+06    -108.940E+06    -152.481E+06    -108.951E+06    -152.470E+06    -17.0807E+06     317.350E+03
             642     45.8459E-03     5.09012E-03     45.5624E-03     329.892E-03    -164.675E-03    -165.218E-03    -164.364E-03     329.581E-03    -165.218E-03     24.6668E-03     342.599E-03     130.701E+06    -40.2481E+06    -122.064E+06    -190.578E+06    -122.071E+06    -190.572E+06    -40.2481E+06     187.889E+03
             643     45.7334E-03     4.24156E-03     45.5363E-03     329.534E-03    -164.333E-03    -165.201E-03    -164.139E-03     329.340E-03    -165.201E-03     19.3815E-03     339.012E-03     139.971E+06    -65.9509E+06    -135.144E+06    -226.753E+06    -135.151E+06    -226.746E+06    -65.9509E+06     602.848E+03
             644     45.6442E-03     3.39178E-03     45.5180E-03     329.604E-03    -164.394E-03    -165.210E-03    -164.289E-03     329.499E-03    -165.210E-03     14.2209E-03     336.059E-03     147.562E+06    -95.8988E+06    -149.230E+06      -262.4E+06    -149.235E+06    -262.396E+06    -95.8988E+06     500.940E+03
             645     45.5764E-03     2.54401E-03     45.5054E-03     329.972E-03    -164.771E-03    -165.200E-03    -164.723E-03     329.923E-03    -165.200E-03     9.52179E-03     333.838E-03     157.758E+06    -126.378E+06    -162.191E+06    -298.699E+06    -162.196E+06    -298.694E+06    -126.378E+06    -109.920E+03
             646     45.5283E-03     1.69571E-03     45.4967E-03     330.190E-03    -164.925E-03    -165.265E-03    -165.054E-03     330.173E-03    -165.119E-03     5.70758E-03     332.038E-03     168.089E+06    -152.935E+06    -171.868E+06    -329.519E+06    -171.875E+06    -329.512E+06    -152.935E+06     301.231E+03
             647     45.5017E-03     848.322E-06     45.4938E-03     330.020E-03    -164.661E-03    -165.359E-03    -164.802E-03     330.015E-03    -165.213E-03     2.73072E-03     330.621E-03     179.138E+06    -172.040E+06    -180.296E+06    -355.141E+06    -178.401E+06    -355.135E+06    -173.940E+06     500.625E+03
             648     47.1162E-03     14.4290E-03     44.8525E-03     331.144E-03    -164.845E-03    -166.299E-03    -163.491E-03     328.492E-03    -165.001E-03     70.2205E-03     400.203E-03     138.035E+06     133.669E+06     125.405E+06    -8.29994E+06    -8.29866E+06     125.404E+06     133.669E+06     157.276E+03
             649     46.7559E-03     13.5793E-03     44.7406E-03     331.185E-03    -164.851E-03    -166.334E-03    -163.336E-03     328.294E-03    -164.957E-03     74.4041E-03     400.334E-03     128.702E+06     113.624E+06     110.472E+06     -16.605E+06    -16.6027E+06     110.646E+06     113.448E+06     465.264E+03
             650     46.4411E-03     12.7302E-03     44.6622E-03     329.937E-03    -164.829E-03    -165.108E-03    -163.082E-03     328.018E-03    -164.936E-03     61.5178E-03     383.676E-03     121.839E+06     98.2594E+06     96.5300E+06    -24.4280E+06    -24.4259E+06     98.2335E+06     96.5538E+06     496.211E+03
             651     46.1388E-03     11.8793E-03     44.5833E-03     329.950E-03    -164.828E-03    -165.121E-03    -163.257E-03     328.182E-03    -164.926E-03     58.9442E-03     376.907E-03     120.324E+06     91.2086E+06     82.7857E+06    -33.0137E+06    -32.9947E+06     91.1896E+06     82.7857E+06    -364.294E+03
             652     45.8597E-03     11.0322E-03     44.5130E-03     329.582E-03    -164.513E-03    -165.070E-03    -163.161E-03     328.127E-03    -164.966E-03     53.5167E-03     369.196E-03     124.743E+06     85.6462E+06     77.9148E+06    -42.6581E+06    -42.6341E+06     85.6222E+06     77.9148E+06    -1.16167E+06
             653     45.6021E-03     10.1812E-03     44.4511E-03     329.437E-03    -164.386E-03    -165.050E-03    -163.108E-03     328.158E-03    -165.050E-03     50.1364E-03     363.512E-03     119.996E+06     74.0621E+06     59.8496E+06    -51.8101E+06    -51.7922E+06     60.6698E+06     73.2240E+06    -288.872E+03
             654     45.3635E-03     9.33082E-03     44.3935E-03     329.681E-03    -164.560E-03    -165.121E-03    -163.464E-03     328.581E-03    -165.117E-03     46.4990E-03     359.115E-03     105.680E+06     56.2168E+06     6.52979E+06    -61.9850E+06    -61.9560E+06     6.50072E+06     56.2168E+06     850.006E+03
             655     45.1424E-03     8.48524E-03     44.3378E-03     329.784E-03    -164.616E-03    -165.168E-03    -163.715E-03     328.880E-03    -165.165E-03     42.1901E-03     355.374E-03     101.135E+06     39.0761E+06    -43.2926E+06    -72.8601E+06    -72.8089E+06    -43.3439E+06     39.0761E+06     805.014E+03
             656     44.9422E-03     7.63436E-03     44.2891E-03     329.865E-03    -164.682E-03    -165.183E-03    -163.942E-03     329.125E-03    -165.183E-03     38.1696E-03     352.113E-03     106.058E+06     22.0080E+06    -75.9157E+06    -90.5491E+06    -84.5291E+06    -81.9357E+06     22.0080E+06     388.799E+03
             657     44.7618E-03     6.78621E-03     44.2444E-03     329.827E-03    -164.647E-03    -165.180E-03    -164.052E-03     329.232E-03    -165.180E-03     34.2191E-03     348.889E-03     112.200E+06     3.77654E+06    -96.5864E+06    -117.003E+06    -96.6225E+06    -116.967E+06     3.77654E+06     640.326E+03
             658     44.6019E-03     5.93877E-03     44.2048E-03     329.534E-03    -164.356E-03    -165.178E-03    -163.901E-03     329.079E-03    -165.178E-03     29.8976E-03     345.437E-03     119.043E+06    -16.9142E+06    -108.917E+06    -150.758E+06    -108.936E+06    -150.740E+06    -16.9142E+06     619.984E+03
             659     44.4638E-03     5.08890E-03     44.1717E-03     329.448E-03    -164.249E-03    -165.199E-03    -163.929E-03     329.128E-03    -165.199E-03     25.0131E-03     342.202E-03     129.953E+06    -40.8093E+06    -122.203E+06    -190.240E+06    -122.205E+06    -190.238E+06    -40.8093E+06     25.4702E+03
             660     44.3510E-03     4.24053E-03     44.1478E-03     329.640E-03    -164.431E-03    -165.209E-03    -164.228E-03     329.437E-03    -165.209E-03     19.8272E-03     339.162E-03     139.327E+06    -66.9744E+06    -135.698E+06    -227.034E+06    -135.705E+06    -227.027E+06    -66.9744E+06    -98.3418E+03
             661     44.2586E-03     3.39282E-03     44.1283E-03     329.899E-03    -164.733E-03    -165.166E-03    -164.623E-03     329.789E-03    -165.166E-03     14.4918E-03     336.334E-03     146.600E+06    -95.7988E+06    -148.636E+06    -261.177E+06    -148.644E+06    -261.169E+06    -95.7988E+06     243.954E+03
             662     44.1881E-03     2.54453E-03     44.1148E-03     329.896E-03    -164.809E-03    -165.087E-03    -164.762E-03     329.849E-03    -165.087E-03     9.33490E-03     333.744E-03     157.505E+06    -125.380E+06    -160.513E+06    -297.205E+06    -160.518E+06    -297.200E+06    -125.380E+06    -150.809E+03
             663     44.1407E-03     1.69651E-03     44.1081E-03     329.733E-03    -164.662E-03    -165.071E-03    -164.645E-03     329.716E-03    -165.071E-03     5.64819E-03     331.585E-03     168.605E+06    -153.118E+06    -171.570E+06    -330.032E+06    -171.578E+06    -330.024E+06    -153.118E+06    -363.344E+03
             664     44.1112E-03     847.570E-06     44.1030E-03     330.108E-03    -164.441E-03    -165.667E-03    -165.272E-03     330.103E-03    -164.831E-03     2.35118E-03     330.721E-03     178.850E+06    -172.474E+06    -178.831E+06    -354.370E+06    -178.762E+06    -354.364E+06    -172.549E+06     287.679E+03
             665     45.7964E-03     14.4279E-03     43.4643E-03     331.086E-03    -164.711E-03    -166.374E-03    -163.421E-03     328.428E-03    -165.007E-03     70.3238E-03     400.067E-03     137.813E+06     133.288E+06     125.486E+06    -8.24475E+06    -8.24098E+06     125.482E+06     133.288E+06     263.494E+03
             666     45.4257E-03     13.5789E-03     43.3487E-03     331.431E-03    -164.957E-03    -166.474E-03    -163.592E-03     328.549E-03    -164.957E-03     74.2858E-03     400.465E-03     128.457E+06     113.665E+06     110.575E+06    -16.2973E+06    -16.2940E+06     111.067E+06     113.170E+06     327.535E+03
             667     45.1078E-03     12.7296E-03     43.2744E-03     330.099E-03    -164.923E-03    -165.176E-03    -163.255E-03     328.178E-03    -164.923E-03     61.5565E-03     383.748E-03     122.259E+06     98.9356E+06     96.6128E+06    -24.4622E+06    -24.4577E+06     98.9311E+06     96.6128E+06     689.623E+03
             668     44.7972E-03     11.8812E-03     43.1929E-03     329.498E-03    -164.469E-03    -165.029E-03    -162.804E-03     327.730E-03    -164.926E-03     58.8846E-03     376.457E-03     120.894E+06     92.4367E+06     83.5270E+06    -32.5778E+06    -32.5737E+06     92.4327E+06     83.5270E+06     631.919E+03
             669     44.5128E-03     11.0294E-03     43.1248E-03     329.136E-03    -164.136E-03    -165.000E-03    -162.707E-03     327.707E-03    -165.000E-03     52.9601E-03     368.749E-03     124.282E+06     86.4323E+06     78.6786E+06    -41.4090E+06    -41.4026E+06     86.4259E+06     78.6786E+06    -257.101E+03
             670     44.2490E-03     10.1804E-03     43.0620E-03     329.697E-03    -164.609E-03    -165.089E-03    -163.392E-03     328.481E-03    -165.089E-03     48.9202E-03     363.732E-03     119.086E+06     73.0374E+06     58.6104E+06    -51.9532E+06    -51.9453E+06     59.2735E+06     72.3664E+06    -791.472E+03
             671     44.0025E-03     9.33362E-03     43.0012E-03     330.015E-03    -164.883E-03    -165.132E-03    -163.847E-03     328.975E-03    -165.128E-03     45.2912E-03     359.428E-03     105.599E+06     55.6342E+06     5.42790E+06    -62.6557E+06    -62.6403E+06     5.41246E+06     55.6342E+06     129.461E+03
             672     43.7783E-03     8.48251E-03     42.9486E-03     329.968E-03    -164.818E-03    -165.151E-03    -163.925E-03     329.072E-03    -165.147E-03     42.0431E-03     355.522E-03     101.413E+06     39.6700E+06    -41.7247E+06    -73.2322E+06    -73.1869E+06    -41.7700E+06     39.6700E+06     966.203E+03
             673     43.5726E-03     7.63586E-03     42.8984E-03     329.934E-03    -164.792E-03    -165.143E-03    -164.043E-03     329.186E-03    -165.143E-03     38.3843E-03     352.130E-03     105.751E+06     22.0352E+06    -74.4099E+06    -90.9139E+06    -84.7107E+06    -80.6132E+06     22.0352E+06     573.976E+03
             674     43.3883E-03     6.78768E-03     42.8541E-03     329.665E-03    -164.527E-03    -165.138E-03    -163.922E-03     329.060E-03    -165.138E-03     34.5029E-03     348.735E-03     111.939E+06     3.43373E+06    -96.5694E+06    -117.156E+06    -96.5888E+06    -117.137E+06     3.43373E+06     148.134E+03
             675     43.2255E-03     5.93795E-03     42.8157E-03     329.338E-03    -164.183E-03    -165.155E-03    -163.716E-03     328.871E-03    -165.155E-03     30.2429E-03     345.271E-03     118.603E+06    -16.6372E+06    -108.820E+06    -149.883E+06    -108.835E+06    -149.868E+06    -16.6372E+06     216.169E+03
             676     43.0851E-03     5.08948E-03     42.7834E-03     329.361E-03    -164.168E-03    -165.193E-03    -163.853E-03     329.046E-03    -165.193E-03     24.7615E-03     342.088E-03     129.036E+06    -40.4920E+06    -122.106E+06    -188.780E+06    -122.108E+06    -188.778E+06    -40.4920E+06    -22.9348E+03
             677     42.9669E-03     4.24048E-03     42.7571E-03     329.685E-03    -164.485E-03    -165.200E-03    -164.292E-03     329.492E-03    -165.200E-03     19.3883E-03     339.170E-03     138.726E+06    -67.3197E+06    -136.076E+06    -226.697E+06    -136.079E+06    -226.693E+06    -67.3197E+06    -423.886E+03
             678     42.8723E-03     3.39244E-03     42.7379E-03     329.818E-03    -164.660E-03    -165.158E-03    -164.549E-03     329.706E-03    -165.158E-03     14.6389E-03     336.269E-03     146.207E+06    -96.1590E+06    -149.124E+06    -261.162E+06    -149.132E+06    -261.154E+06    -96.1590E+06    -427.329E+03
             679     42.8011E-03     2.54467E-03     42.7253E-03     329.799E-03    -164.692E-03    -165.107E-03    -164.639E-03     329.746E-03    -165.107E-03     9.92583E-03     333.637E-03     155.558E+06    -126.579E+06    -161.515E+06    -296.344E+06    -161.521E+06    -296.338E+06    -126.579E+06    -159.699E+03
             680     42.7526E-03     1.69612E-03     42.7190E-03     329.935E-03    -164.716E-03    -165.219E-03    -164.856E-03     329.915E-03    -165.059E-03     5.98167E-03     331.777E-03     166.820E+06    -154.633E+06    -171.850E+06    -329.208E+06    -171.852E+06    -329.206E+06    -154.633E+06    -354.715E+03
             681     42.7229E-03     847.929E-06     42.7145E-03     329.987E-03    -164.219E-03    -165.768E-03    -165.583E-03     329.982E-03    -164.398E-03     2.85065E-03     330.584E-03     177.692E+06    -173.878E+06    -179.707E+06    -354.384E+06    -179.637E+06    -354.379E+06    -173.953E+06    -724.274E+03
             682     44.4780E-03     14.4287E-03     42.0726E-03     331.007E-03    -164.725E-03    -166.282E-03    -163.330E-03     328.344E-03    -165.014E-03     70.3901E-03     400.115E-03     137.812E+06     133.430E+06     125.774E+06    -8.02919E+06    -8.02448E+06     125.769E+06     133.430E+06     282.489E+03
             683     44.1030E-03     13.5792E-03     41.9605E-03     331.410E-03    -164.966E-03    -166.443E-03    -163.541E-03     328.507E-03    -164.966E-03     74.5859E-03     400.521E-03     127.896E+06     112.857E+06     110.112E+06    -16.3796E+06    -16.3755E+06     110.522E+06     112.442E+06     373.532E+03
             684     43.7747E-03     12.7302E-03     41.8828E-03     330.243E-03    -164.930E-03    -165.313E-03    -163.385E-03     328.315E-03    -164.930E-03     61.6899E-03     383.983E-03     121.488E+06     98.3792E+06     95.6782E+06    -24.4241E+06    -24.4191E+06     98.3742E+06     95.6782E+06     385.772E+03
             685     43.4605E-03     11.8798E-03     41.8053E-03     329.772E-03    -164.563E-03    -165.209E-03    -163.113E-03     328.035E-03    -164.922E-03     58.3863E-03     376.884E-03     121.710E+06     93.8482E+06     84.3681E+06    -32.2484E+06    -32.2412E+06     93.8409E+06     84.3681E+06     525.162E+03
             686     43.1696E-03     11.0311E-03     41.7364E-03     329.419E-03    -164.336E-03    -165.083E-03    -163.048E-03     328.018E-03    -164.970E-03     52.4922E-03     369.018E-03     125.725E+06     88.9312E+06     79.9646E+06    -40.9378E+06    -40.9302E+06     88.9236E+06     79.9646E+06     705.301E+03
             687     42.8958E-03     10.1825E-03     41.6697E-03     329.579E-03    -164.536E-03    -165.043E-03    -163.317E-03     328.360E-03    -165.043E-03     48.9836E-03     363.539E-03     119.142E+06     74.0996E+06     57.5598E+06    -51.7620E+06    -51.7503E+06     59.3212E+06     72.3265E+06     602.043E+03
             688     42.6463E-03     9.33189E-03     41.6128E-03     329.798E-03    -164.684E-03    -165.114E-03    -163.664E-03     328.752E-03    -165.088E-03     45.4121E-03     359.115E-03     104.520E+06     54.8084E+06     4.63693E+06    -62.7798E+06    -62.7715E+06     4.62870E+06     54.8084E+06     396.158E+03
             689     42.4150E-03     8.48514E-03     41.5576E-03     329.795E-03    -164.649E-03    -165.146E-03    -163.782E-03     328.901E-03    -165.120E-03     41.9787E-03     355.289E-03     100.946E+06     39.1525E+06    -41.4441E+06    -73.2206E+06    -73.2105E+06    -41.4542E+06     39.1525E+06     93.7845E+03
             690     42.2045E-03     7.63532E-03     41.5081E-03     329.574E-03    -164.427E-03    -165.147E-03    -163.664E-03     328.811E-03    -165.147E-03     38.7582E-03     351.767E-03     105.503E+06     22.6662E+06    -74.2655E+06    -89.5484E+06    -84.1517E+06    -79.6622E+06     22.6662E+06     296.505E+03
             691     42.0164E-03     6.78609E-03     41.4648E-03     329.589E-03    -164.416E-03    -165.173E-03    -163.795E-03     328.968E-03    -165.173E-03     34.9542E-03     348.646E-03     111.618E+06     3.63143E+06    -96.6969E+06    -116.214E+06    -96.7403E+06    -116.171E+06     3.63143E+06     509.300E+03
             692     41.8497E-03     5.93807E-03     41.4262E-03     329.679E-03    -164.501E-03    -165.177E-03    -164.035E-03     329.213E-03    -165.177E-03     30.2246E-03     345.571E-03     117.836E+06    -17.1817E+06    -109.779E+06    -149.338E+06    -109.813E+06    -149.304E+06    -17.1817E+06     39.9769E+03
             693     41.7050E-03     5.08953E-03     41.3933E-03     329.643E-03    -164.476E-03    -165.167E-03    -164.155E-03     329.322E-03    -165.167E-03     25.0205E-03     342.293E-03     127.904E+06    -40.6138E+06    -122.802E+06    -187.480E+06    -122.812E+06    -187.469E+06    -40.6138E+06    -395.546E+03
             694     41.5849E-03     4.24161E-03     41.3680E-03     329.559E-03    -164.406E-03    -165.154E-03    -164.205E-03     329.359E-03    -165.154E-03     19.7101E-03     339.003E-03     138.409E+06    -67.0440E+06    -136.470E+06    -226.115E+06    -136.473E+06    -226.112E+06    -67.0440E+06    -435.088E+03
             695     41.4872E-03     3.39261E-03     41.3482E-03     329.549E-03    -164.407E-03    -165.141E-03    -164.300E-03     329.441E-03    -165.141E-03     14.2746E-03     336.022E-03     145.792E+06    -96.8958E+06    -150.369E+06    -261.560E+06    -150.379E+06    -261.551E+06    -96.8958E+06    -210.235E+03
             696     41.4145E-03     2.54338E-03     41.3364E-03     329.835E-03    -164.687E-03    -165.148E-03    -164.684E-03     329.789E-03    -165.105E-03     9.20920E-03     333.683E-03     153.416E+06    -128.212E+06    -163.029E+06    -295.744E+06    -163.038E+06    -295.734E+06    -128.212E+06    -232.825E+03
             697     41.3628E-03     1.69574E-03     41.3280E-03     330.038E-03    -164.845E-03    -165.193E-03    -165.033E-03     330.022E-03    -164.989E-03     5.24499E-03     331.879E-03     164.692E+06    -155.297E+06    -172.879E+06    -327.908E+06    -172.883E+06    -327.904E+06    -155.297E+06    -639.071E+03
             698     41.3333E-03     848.904E-06     41.3245E-03     329.728E-03    -164.375E-03    -165.354E-03    -164.904E-03     329.724E-03    -164.820E-03     2.83174E-03     330.339E-03     178.053E+06    -173.129E+06    -181.237E+06    -355.083E+06    -179.459E+06    -355.075E+06    -174.914E+06    -594.760E+03
             699     43.1672E-03     14.4280E-03     40.6846E-03     330.823E-03    -164.615E-03    -166.208E-03    -163.114E-03     328.135E-03    -165.021E-03     70.6131E-03     400.084E-03     137.800E+06     133.352E+06     125.656E+06    -8.11524E+06    -8.11288E+06     125.654E+06     133.352E+06     289.744E+03
             700     42.7813E-03     13.5781E-03     40.5694E-03     331.352E-03    -164.987E-03    -166.365E-03    -163.434E-03     328.421E-03    -164.987E-03     74.8904E-03     400.678E-03     127.921E+06     113.155E+06     110.474E+06    -16.0736E+06    -16.0702E+06     110.750E+06     112.875E+06     585.101E+03
             701     42.4470E-03     12.7289E-03     40.4935E-03     330.426E-03    -164.947E-03    -165.479E-03    -163.570E-03     328.516E-03    -164.947E-03     61.4194E-03     384.357E-03     121.626E+06     98.7426E+06     95.6926E+06    -24.3600E+06    -24.3510E+06     98.7336E+06     95.6926E+06     542.999E+03
             702     42.1252E-03     11.8807E-03     40.4151E-03     330.276E-03    -164.909E-03    -165.366E-03    -163.639E-03     328.549E-03    -164.909E-03     58.2949E-03     377.449E-03     121.999E+06     93.6892E+06     83.1753E+06    -33.1503E+06    -33.1393E+06     93.6782E+06     83.1753E+06     612.488E+03
             703     41.8266E-03     11.0321E-03     40.3455E-03     329.674E-03    -164.630E-03    -165.044E-03    -163.314E-03     328.243E-03    -164.928E-03     53.0970E-03     369.256E-03     126.904E+06     89.3478E+06     79.0982E+06    -42.2764E+06    -42.2575E+06     89.3289E+06     79.0982E+06     1.32140E+06
             704     41.5494E-03     10.1815E-03     40.2826E-03     329.345E-03    -164.344E-03    -165.001E-03    -163.099E-03     328.100E-03    -165.001E-03     49.4712E-03     363.279E-03     120.453E+06     75.5709E+06     58.8340E+06    -51.7923E+06    -51.7691E+06     61.3167E+06     73.0651E+06     1.30095E+06
             705     41.2898E-03     9.33362E-03     40.2210E-03     329.425E-03    -164.329E-03    -165.095E-03    -163.290E-03     328.359E-03    -165.069E-03     45.7958E-03     358.731E-03     104.566E+06     55.2785E+06     6.33068E+06    -62.2138E+06    -62.2033E+06     6.32015E+06     55.2785E+06     113.497E+03
             706     41.0542E-03     8.48371E-03     40.1681E-03     329.501E-03    -164.341E-03    -165.160E-03    -163.446E-03     328.579E-03    -165.133E-03     42.6029E-03     355.085E-03     100.468E+06     38.4920E+06    -41.5961E+06    -73.2343E+06    -73.2261E+06    -41.6043E+06     38.4920E+06    -317.186E+03
             707     40.8396E-03     7.63498E-03     40.1196E-03     329.626E-03    -164.444E-03    -165.182E-03    -163.676E-03     328.858E-03    -165.182E-03     38.8705E-03     351.805E-03     105.265E+06     22.0601E+06    -75.2236E+06    -89.5439E+06    -84.5973E+06    -80.1702E+06     22.0601E+06     211.330E+03
             708     40.6451E-03     6.78628E-03     40.0745E-03     329.732E-03    -164.527E-03    -165.205E-03    -163.923E-03     329.128E-03    -165.205E-03     34.4654E-03     348.736E-03     111.216E+06     4.17454E+06    -96.2929E+06    -114.943E+06    -96.3425E+06    -114.894E+06     4.17454E+06     531.356E+03
             709     40.4736E-03     5.93782E-03     40.0356E-03     329.685E-03    -164.479E-03    -165.205E-03    -164.019E-03     329.224E-03    -165.205E-03     30.0804E-03     345.554E-03     117.131E+06    -16.3483E+06    -108.657E+06    -147.602E+06    -108.691E+06    -147.568E+06    -16.3483E+06    -62.6384E+03
             710     40.3265E-03     5.08953E-03     40.0041E-03     329.775E-03    -164.583E-03    -165.193E-03    -164.253E-03     329.446E-03    -165.193E-03     25.3962E-03     342.416E-03     127.834E+06    -40.3951E+06    -122.466E+06    -187.180E+06    -122.476E+06    -187.170E+06    -40.3951E+06    -559.114E+03
             711     40.2019E-03     4.24065E-03     39.9776E-03     329.841E-03    -164.698E-03    -165.143E-03    -164.497E-03     329.640E-03    -165.143E-03     19.6714E-03     339.302E-03     138.356E+06    -67.1972E+06    -136.943E+06    -226.260E+06    -136.953E+06    -226.250E+06    -67.1972E+06    -111.338E+03
             712     40.1035E-03     3.39274E-03     39.9597E-03     329.755E-03    -164.704E-03    -165.051E-03    -164.602E-03     329.653E-03    -165.051E-03     13.9853E-03     336.191E-03     145.287E+06    -96.4610E+06    -150.423E+06    -260.695E+06    -150.447E+06    -260.671E+06    -96.4610E+06    -61.3948E+03
             713     40.0267E-03     2.54542E-03     39.9457E-03     329.658E-03    -164.669E-03    -164.989E-03    -164.667E-03     329.612E-03    -164.945E-03     9.14521E-03     333.482E-03     153.470E+06    -126.734E+06    -162.531E+06    -294.648E+06    -162.550E+06    -294.630E+06    -126.734E+06    -332.562E+03
             714     39.9749E-03     1.69734E-03     39.9388E-03     329.500E-03    -164.576E-03    -164.923E-03    -164.604E-03     329.484E-03    -164.879E-03     5.25771E-03     331.365E-03     164.573E+06    -155.182E+06    -173.489E+06    -327.948E+06    -173.495E+06    -327.941E+06    -155.182E+06    -225.753E+03
             715     39.9451E-03     847.446E-06     39.9361E-03     329.651E-03    -164.416E-03    -165.235E-03    -164.412E-03     329.647E-03    -165.235E-03     2.63078E-03     330.287E-03     176.979E+06    -174.744E+06    -182.429E+06    -355.419E+06    -180.650E+06    -355.414E+06    -176.529E+06     139.584E+03
             716     41.8606E-03     14.4281E-03     39.2955E-03     330.856E-03    -164.714E-03    -166.142E-03    -163.199E-03     328.215E-03    -165.016E-03     70.0080E-03     400.054E-03     137.427E+06     133.037E+06     125.250E+06    -8.10891E+06    -8.10875E+06     125.250E+06     133.037E+06     111.824E+03
             717     41.4660E-03     13.5788E-03     39.1797E-03     331.166E-03    -164.983E-03    -166.182E-03    -163.283E-03     328.266E-03    -164.983E-03     74.5365E-03     400.426E-03     128.168E+06     113.788E+06     109.926E+06    -16.2552E+06    -16.2505E+06     110.870E+06     112.840E+06     574.391E+03
             718     41.1231E-03     12.7295E-03     39.1033E-03     330.281E-03    -164.953E-03    -165.328E-03    -163.413E-03     328.366E-03    -164.953E-03     61.4834E-03     384.084E-03     122.347E+06     99.5777E+06     95.9282E+06    -24.5413E+06    -24.5243E+06     99.5607E+06     95.9282E+06     1.37622E+06
             719     40.7922E-03     11.8805E-03     39.0238E-03     330.261E-03    -164.924E-03    -165.337E-03    -163.583E-03     328.507E-03    -164.924E-03     58.7733E-03     377.353E-03     121.653E+06     93.2854E+06     82.8465E+06    -33.1717E+06    -33.1461E+06     93.2598E+06     82.8465E+06     1.53312E+06
             720     40.4888E-03     11.0308E-03     38.9572E-03     329.992E-03    -164.855E-03    -165.137E-03    -163.611E-03     328.547E-03    -164.935E-03     53.3725E-03     369.601E-03     126.804E+06     88.9884E+06     78.8631E+06    -42.4751E+06    -42.4500E+06     88.9633E+06     78.8631E+06     1.19662E+06
             721     40.2022E-03     10.1832E-03     38.8911E-03     329.494E-03    -164.415E-03    -165.078E-03    -163.267E-03     328.256E-03    -164.989E-03     49.3641E-03     363.442E-03     121.425E+06     76.1017E+06     61.3191E+06    -51.6326E+06    -51.6195E+06     63.6937E+06     73.7140E+06     594.029E+03
             722     39.9393E-03     9.33275E-03     38.8336E-03     329.070E-03    -164.003E-03    -165.067E-03    -162.930E-03     327.998E-03    -165.067E-03     45.9076E-03     358.422E-03     105.508E+06     56.2666E+06     8.00406E+06    -61.4314E+06    -61.4269E+06     7.99953E+06     56.2666E+06    -180.706E+03
             723     39.6955E-03     8.48321E-03     38.7785E-03     329.397E-03    -164.242E-03    -165.155E-03    -163.334E-03     328.489E-03    -165.155E-03     42.2591E-03     354.962E-03     100.341E+06     38.9519E+06    -41.5765E+06    -72.6481E+06    -72.6430E+06    -41.5816E+06     38.9519E+06    -118.797E+03
             724     39.4742E-03     7.63470E-03     38.7288E-03     329.790E-03    -164.592E-03    -165.198E-03    -163.832E-03     329.030E-03    -165.198E-03     38.6999E-03     351.974E-03     104.780E+06     21.9209E+06    -74.1260E+06    -89.6707E+06    -84.1603E+06    -79.6363E+06     21.9209E+06    -312.596E+03
             725     39.2752E-03     6.78682E-03     38.6843E-03     329.845E-03    -164.635E-03    -165.210E-03    -164.024E-03     329.233E-03    -165.210E-03     34.6697E-03     348.859E-03     111.044E+06     4.20977E+06    -95.8303E+06    -114.955E+06    -95.9569E+06    -114.828E+06     4.20977E+06    -658.598E+03
             726     39.1004E-03     5.93760E-03     38.6469E-03     329.784E-03    -164.589E-03    -165.195E-03    -164.140E-03     329.336E-03    -165.195E-03     29.6213E-03     345.653E-03     116.697E+06    -15.9141E+06    -108.537E+06    -146.514E+06    -108.543E+06    -146.508E+06    -15.9141E+06    -174.163E+03
             727     38.9471E-03     5.08870E-03     38.6132E-03     329.752E-03    -164.584E-03    -165.168E-03    -164.277E-03     329.445E-03    -165.168E-03     24.4726E-03     342.402E-03     128.030E+06    -40.0304E+06    -121.942E+06    -186.928E+06    -121.953E+06    -186.917E+06    -40.0304E+06     341.735E+03
             728     38.8202E-03     4.24149E-03     38.5878E-03     329.764E-03    -164.648E-03    -165.116E-03    -164.456E-03     329.572E-03    -165.116E-03     19.2624E-03     339.226E-03     138.675E+06    -66.2682E+06    -135.215E+06    -225.642E+06    -135.245E+06    -225.613E+06    -66.2682E+06     142.820E+03
             729     38.7180E-03     3.39354E-03     38.5690E-03     329.632E-03    -164.589E-03    -165.043E-03    -164.480E-03     329.524E-03    -165.043E-03     14.4384E-03     336.071E-03     145.453E+06    -94.6165E+06    -148.547E+06    -259.051E+06    -148.578E+06    -259.019E+06    -94.6165E+06    -547.572E+03
             730     38.6409E-03     2.54473E-03     38.5570E-03     329.441E-03    -164.429E-03    -165.012E-03    -164.374E-03     329.386E-03    -165.012E-03     10.2509E-03     333.278E-03     154.855E+06    -125.753E+06    -162.310E+06    -295.319E+06    -162.324E+06    -295.305E+06    -125.753E+06    -277.728E+03
             731     38.5876E-03     1.69563E-03     38.5503E-03     329.716E-03    -164.612E-03    -165.104E-03    -164.670E-03     329.694E-03    -165.025E-03     6.15150E-03     331.587E-03     165.302E+06    -154.075E+06    -172.833E+06    -327.756E+06    -172.835E+06    -327.754E+06    -154.075E+06     302.621E+03
             732     38.5562E-03     848.611E-06     38.5469E-03     329.979E-03    -164.659E-03    -165.320E-03    -164.941E-03     329.975E-03    -165.034E-03     2.66073E-03     330.603E-03     176.881E+06    -173.442E+06    -180.176E+06    -353.560E+06    -179.426E+06    -353.558E+06    -174.194E+06     321.060E+03
             733     40.5575E-03     14.4290E-03     37.9040E-03     331.102E-03    -164.810E-03    -166.292E-03    -163.460E-03     328.462E-03    -165.002E-03     70.1605E-03     400.143E-03     137.008E+06     132.589E+06     125.074E+06    -8.01918E+06    -8.01812E+06     125.073E+06     132.589E+06     188.158E+03
             734     40.1583E-03     13.5789E-03     37.7928E-03     331.206E-03    -164.935E-03    -166.271E-03    -163.350E-03     328.309E-03    -164.959E-03     74.6054E-03     400.226E-03     127.592E+06     113.630E+06     109.015E+06    -16.1970E+06    -16.1852E+06     110.356E+06     112.278E+06     1.00097E+06
             735     39.8017E-03     12.7291E-03     37.7113E-03     329.946E-03    -164.912E-03    -165.034E-03    -163.107E-03     328.044E-03    -164.937E-03     61.2374E-03     383.618E-03     122.174E+06     99.4240E+06     95.4758E+06    -24.6707E+06    -24.6544E+06     99.4077E+06     95.4758E+06     1.18349E+06
             736     39.4670E-03     11.8793E-03     37.6367E-03     330.010E-03    -164.898E-03    -165.112E-03    -163.368E-03     328.297E-03    -164.928E-03     58.0761E-03     377.055E-03     121.269E+06     93.9098E+06     83.7856E+06    -32.0289E+06    -32.0101E+06     93.8910E+06     83.7856E+06     1.01748E+06
             737     39.1496E-03     11.0314E-03     37.5633E-03     329.759E-03    -164.602E-03    -165.157E-03    -163.363E-03     328.322E-03    -164.958E-03     53.2046E-03     369.312E-03     125.767E+06     90.5359E+06     80.5997E+06    -39.8143E+06    -39.7991E+06     90.5207E+06     80.5997E+06     790.768E+03
             738     38.8610E-03     10.1820E-03     37.5034E-03     329.533E-03    -164.370E-03    -165.163E-03    -163.260E-03     328.283E-03    -165.023E-03     49.6163E-03     363.516E-03     120.425E+06     77.2633E+06     62.6521E+06    -49.4146E+06    -49.4106E+06     65.0563E+06     74.8551E+06     122.005E+03
             739     38.5896E-03     9.33300E-03     37.4440E-03     329.634E-03    -164.501E-03    -165.133E-03    -163.468E-03     328.551E-03    -165.082E-03     46.1872E-03     359.004E-03     105.329E+06     57.3455E+06     8.02471E+06    -59.8927E+06    -59.8628E+06     7.99484E+06     57.3455E+06     463.993E+03
             740     38.3396E-03     8.48445E-03     37.3891E-03     329.694E-03    -164.566E-03    -165.129E-03    -163.658E-03     328.787E-03    -165.129E-03     42.2718E-03     355.118E-03     100.134E+06     40.2432E+06    -40.6088E+06    -71.3248E+06    -71.2952E+06    -40.6384E+06     40.2432E+06     615.102E+03
             741     38.1117E-03     7.63510E-03     37.3391E-03     329.653E-03    -164.501E-03    -165.152E-03    -163.766E-03     328.918E-03    -165.152E-03     38.0003E-03     351.789E-03     104.405E+06     22.6660E+06    -72.3444E+06    -88.8591E+06    -83.5396E+06    -77.6639E+06     22.6660E+06    -280.208E+03
             742     37.9069E-03     6.78542E-03     37.2946E-03     329.772E-03    -164.613E-03    -165.158E-03    -164.033E-03     329.192E-03    -165.158E-03     33.7618E-03     348.801E-03     110.760E+06     4.03352E+06    -95.5664E+06    -114.879E+06    -95.7373E+06    -114.708E+06     4.03352E+06    -1.02097E+06
             743     37.7256E-03     5.93845E-03     37.2552E-03     329.824E-03    -164.698E-03    -165.126E-03    -164.263E-03     329.390E-03    -165.126E-03     29.1780E-03     345.706E-03     116.827E+06    -16.0977E+06    -108.444E+06    -146.987E+06    -108.495E+06    -146.936E+06    -16.0977E+06    -865.666E+03
             744     37.5709E-03     5.09111E-03     37.2244E-03     329.474E-03    -164.375E-03    -165.098E-03    -164.069E-03     329.168E-03    -165.098E-03     24.4780E-03     342.154E-03     128.209E+06    -39.4628E+06    -121.266E+06    -186.581E+06    -121.291E+06    -186.556E+06    -39.4628E+06    -254.019E+03
             745     37.4390E-03     4.24114E-03     37.1980E-03     329.211E-03    -164.098E-03    -165.113E-03    -163.896E-03     329.009E-03    -165.113E-03     19.7597E-03     338.659E-03     138.376E+06    -65.6726E+06    -134.655E+06    -224.746E+06    -134.696E+06    -224.705E+06    -65.6726E+06    -65.7495E+03
             746     37.3343E-03     3.39226E-03     37.1798E-03     329.356E-03    -164.199E-03    -165.157E-03    -164.089E-03     329.246E-03    -165.157E-03     14.4812E-03     335.813E-03     144.737E+06    -95.0443E+06    -148.973E+06    -258.698E+06    -148.995E+06    -258.675E+06    -95.0443E+06     124.773E+03
             747     37.2555E-03     2.54358E-03     37.1685E-03     329.693E-03    -164.477E-03    -165.217E-03    -164.425E-03     329.642E-03    -165.217E-03     9.89805E-03     333.555E-03     155.053E+06    -125.587E+06    -161.166E+06    -295.003E+06    -161.167E+06    -295.001E+06    -125.587E+06     89.5730E+03
             748     37.1985E-03     1.69588E-03     37.1598E-03     330.159E-03    -164.811E-03    -165.348E-03    -164.869E-03     330.138E-03    -165.269E-03     6.19618E-03     332.018E-03     165.769E+06    -153.649E+06    -171.399E+06    -327.411E+06    -171.400E+06    -327.409E+06    -153.649E+06    -337.804E+03
             749     37.1660E-03     847.674E-06     37.1563E-03     330.497E-03    -164.791E-03    -165.705E-03    -165.544E-03     330.491E-03    -164.947E-03     2.79600E-03     331.110E-03     176.185E+06    -172.830E+06    -179.440E+06    -352.196E+06    -178.690E+06    -352.194E+06    -173.582E+06    -68.3245E+03
             750     39.2625E-03     14.4276E-03     36.5156E-03     331.233E-03    -164.706E-03    -166.527E-03    -163.578E-03     328.572E-03    -164.993E-03     70.3312E-03     400.254E-03     136.175E+06     131.279E+06     124.477E+06    -8.16914E+06    -8.16785E+06     124.475E+06     131.279E+06     215.087E+03
             751     38.8509E-03     13.5796E-03     36.4004E-03     331.591E-03    -164.913E-03    -166.678E-03    -163.774E-03     328.711E-03    -164.937E-03     74.2201E-03     400.514E-03     126.790E+06     113.128E+06     108.701E+06    -15.8081E+06    -15.7987E+06     109.984E+06     111.837E+06     520.542E+03
             752     38.4916E-03     12.7302E-03     36.3255E-03     329.999E-03    -164.850E-03    -165.149E-03    -163.217E-03     328.118E-03    -164.901E-03     60.8827E-03     383.666E-03     121.664E+06     100.413E+06     96.7578E+06    -23.0339E+06    -23.0226E+06     100.402E+06     96.7578E+06     525.514E+03
             753     38.1412E-03     11.8815E-03     36.2434E-03     329.575E-03    -164.635E-03    -164.940E-03    -162.944E-03     327.843E-03    -164.899E-03     58.2807E-03     376.606E-03     120.900E+06     94.5093E+06     84.1371E+06    -31.1433E+06    -31.1401E+06     94.5061E+06     84.1371E+06     226.077E+03
             754     37.8218E-03     11.0310E-03     36.1774E-03     329.207E-03    -164.244E-03    -164.963E-03    -162.821E-03     327.784E-03    -164.963E-03     52.8884E-03     368.743E-03     125.941E+06     91.2342E+06     80.5034E+06    -39.6314E+06    -39.6287E+06     91.2315E+06     80.5034E+06     14.6171E+03
             755     37.5194E-03     10.1806E-03     36.1118E-03     329.562E-03    -164.461E-03    -165.100E-03    -163.280E-03     328.330E-03    -165.050E-03     49.2376E-03     363.488E-03     120.713E+06     77.4994E+06     62.5305E+06    -49.6314E+06    -49.6148E+06     65.2355E+06     74.7778E+06     438.635E+03
             756     37.2421E-03     9.33275E-03     36.0538E-03     330.082E-03    -164.916E-03    -165.166E-03    -163.933E-03     329.020E-03    -165.087E-03     45.7660E-03     359.405E-03     105.686E+06     56.9145E+06     7.91505E+06    -60.8645E+06    -60.8230E+06     7.87356E+06     56.9145E+06     899.705E+03
             757     36.9852E-03     8.48394E-03     35.9990E-03     330.045E-03    -164.924E-03    -165.120E-03    -164.043E-03     329.135E-03    -165.093E-03     42.3559E-03     355.527E-03     100.481E+06     40.9184E+06    -38.9267E+06    -71.5185E+06    -71.4564E+06    -38.9888E+06     40.9184E+06     1.01489E+06
             758     36.7510E-03     7.63612E-03     35.9489E-03     329.930E-03    -164.827E-03    -165.103E-03    -164.121E-03     329.192E-03    -165.070E-03     38.0974E-03     352.006E-03     104.142E+06     23.8931E+06    -70.2731E+06    -87.6135E+06    -82.4454E+06    -75.4413E+06     23.8931E+06     346.712E+03
             759     36.5411E-03     6.78876E-03     35.9050E-03     329.473E-03    -164.385E-03    -165.088E-03    -163.839E-03     328.895E-03    -165.056E-03     33.7040E-03     348.431E-03     110.172E+06     4.37543E+06    -94.8201E+06    -113.816E+06    -94.9175E+06    -113.718E+06     4.37543E+06    -630.095E+03
             760     36.3538E-03     5.93867E-03     35.8654E-03     329.044E-03    -163.962E-03    -165.081E-03    -163.512E-03     328.593E-03    -165.081E-03     29.7203E-03     344.932E-03     116.731E+06    -16.3255E+06    -108.286E+06    -147.173E+06    -108.340E+06    -147.120E+06    -16.3255E+06    -890.219E+03
             761     36.1942E-03     5.08908E-03     35.8347E-03     329.237E-03    -164.107E-03    -165.130E-03    -163.783E-03     328.913E-03    -165.130E-03     25.1483E-03     341.960E-03     127.545E+06    -40.4772E+06    -122.564E+06    -186.905E+06    -122.582E+06    -186.886E+06    -40.4772E+06    -686.597E+03
             762     36.0602E-03     4.24127E-03     35.8099E-03     329.319E-03    -164.151E-03    -165.168E-03    -163.948E-03     329.116E-03    -165.168E-03     19.8259E-03     338.772E-03     136.799E+06    -67.4925E+06    -136.589E+06    -224.769E+06    -136.613E+06    -224.745E+06    -67.4925E+06    -41.8584E+03
             763     35.9509E-03     3.39214E-03     35.7905E-03     329.484E-03    -164.276E-03    -165.208E-03    -164.169E-03     329.377E-03    -165.208E-03     14.2448E-03     335.915E-03     142.699E+06    -96.4314E+06    -149.344E+06    -257.714E+06    -149.361E+06    -257.697E+06    -96.4314E+06    -145.478E+03
             764     35.8686E-03     2.54420E-03     35.7782E-03     329.931E-03    -164.695E-03    -165.236E-03    -164.647E-03     329.883E-03    -165.236E-03     9.53722E-03     333.785E-03     153.813E+06    -126.119E+06    -161.457E+06    -294.234E+06    -161.462E+06    -294.229E+06    -126.119E+06    -496.635E+03
             765     35.8105E-03     1.69553E-03     35.7703E-03     330.103E-03    -164.834E-03    -165.269E-03    -164.816E-03     330.084E-03    -165.269E-03     5.79935E-03     331.953E-03     164.988E+06    -154.093E+06    -171.730E+06    -326.990E+06    -171.736E+06    -326.985E+06    -154.093E+06     99.8853E+03
             766     35.7758E-03     847.319E-06     35.7657E-03     330.520E-03    -164.801E-03    -165.719E-03    -165.268E-03     330.515E-03    -165.247E-03     2.83884E-03     331.133E-03     174.724E+06    -173.939E+06    -179.800E+06    -351.496E+06    -179.267E+06    -351.491E+06    -174.477E+06     236.219E+03
             767     37.9745E-03     14.4292E-03     35.1263E-03     331.523E-03    -164.838E-03    -166.684E-03    -163.890E-03     328.868E-03    -164.978E-03     70.2721E-03     400.643E-03     136.149E+06     130.998E+06     125.377E+06    -7.87291E+06    -7.87221E+06     125.376E+06     130.998E+06    -62.2045E+03
             768     37.5505E-03     13.5790E-03     35.0093E-03     331.498E-03    -164.793E-03    -166.705E-03    -163.728E-03     328.640E-03    -164.912E-03     73.8742E-03     400.464E-03     126.529E+06     112.582E+06     108.671E+06    -15.8524E+06    -15.8496E+06     110.078E+06     111.173E+06    -405.324E+03
             769     37.1826E-03     12.7310E-03     34.9352E-03     329.861E-03    -164.734E-03    -165.127E-03    -163.078E-03     327.958E-03    -164.880E-03     61.2248E-03     383.537E-03     121.606E+06     100.192E+06     95.7103E+06    -23.5801E+06    -23.5735E+06     100.186E+06     95.7103E+06    -265.763E+03
             770     36.8252E-03     11.8800E-03     34.8563E-03     329.577E-03    -164.651E-03    -164.926E-03    -162.919E-03     327.806E-03    -164.887E-03     58.9139E-03     376.688E-03     121.372E+06     95.5727E+06     84.1909E+06    -31.0003E+06    -30.9957E+06     95.5681E+06     84.1909E+06     22.1084E+03
             771     36.4940E-03     11.0308E-03     34.7870E-03     329.513E-03    -164.574E-03    -164.939E-03    -163.168E-03     328.106E-03    -164.938E-03     52.6146E-03     369.058E-03     126.200E+06     91.2783E+06     80.2668E+06    -39.9581E+06    -39.9541E+06     91.2742E+06     80.2668E+06     57.5729E+03
             772     36.1853E-03     10.1827E-03     34.7230E-03     329.617E-03    -164.615E-03    -165.003E-03    -163.408E-03     328.410E-03    -165.002E-03     48.7676E-03     363.531E-03     120.828E+06     76.8519E+06      62.168E+06    -50.2978E+06    -50.2799E+06     64.8520E+06     74.1500E+06     505.637E+03
             773     35.8969E-03     9.33280E-03     34.6624E-03     329.838E-03    -164.774E-03    -165.064E-03    -163.767E-03     328.804E-03    -165.037E-03     45.1591E-03     359.115E-03     105.260E+06     56.8606E+06     8.28298E+06    -60.3096E+06    -60.2813E+06     8.25462E+06     56.8606E+06     735.165E+03
             774     35.6339E-03     8.48504E-03     34.6089E-03     329.889E-03    -164.811E-03    -165.078E-03    -163.951E-03     329.000E-03    -165.050E-03     41.8665E-03     355.324E-03     99.9684E+06     41.2320E+06    -38.2128E+06    -70.6735E+06    -70.6073E+06    -38.2790E+06     41.2320E+06     497.046E+03
             775     35.3917E-03     7.63616E-03     34.5581E-03     329.457E-03    -164.367E-03    -165.091E-03    -163.632E-03     328.691E-03    -165.058E-03     38.8576E-03     351.535E-03     103.938E+06     24.4792E+06    -69.5452E+06    -86.7164E+06    -82.2353E+06    -74.0262E+06     24.4792E+06     503.983E+03
             776     35.1758E-03     6.78720E-03     34.5148E-03     329.312E-03    -164.193E-03    -165.119E-03    -163.594E-03     328.682E-03    -165.087E-03     35.1921E-03     348.309E-03     109.452E+06     4.39210E+06    -94.8940E+06    -112.614E+06    -95.2333E+06    -112.274E+06     4.39210E+06     475.192E+03
             777     34.9867E-03     5.93850E-03     34.4790E-03     329.301E-03    -164.183E-03    -165.118E-03    -163.716E-03     328.834E-03    -165.118E-03     30.2151E-03     345.157E-03     115.804E+06    -16.8923E+06    -108.549E+06    -146.494E+06    -108.552E+06    -146.491E+06    -16.8923E+06    -14.9728E+03
             778     34.8184E-03     5.08927E-03     34.4444E-03     329.287E-03    -164.131E-03    -165.156E-03    -163.824E-03     328.979E-03    -165.156E-03     24.4344E-03     341.952E-03     127.439E+06    -40.6216E+06    -121.730E+06    -186.919E+06    -121.734E+06    -186.915E+06    -40.6216E+06    -83.5581E+03
             779     34.6804E-03     4.24053E-03     34.4202E-03     329.486E-03    -164.307E-03    -165.179E-03    -164.119E-03     329.297E-03    -165.179E-03     19.1431E-03     338.977E-03     136.854E+06    -66.8140E+06    -134.839E+06    -224.094E+06    -134.846E+06    -224.087E+06    -66.8140E+06    -409.214E+03
             780     34.5683E-03     3.39260E-03     34.4014E-03     329.700E-03    -164.536E-03    -165.164E-03    -164.429E-03     329.592E-03    -165.164E-03     14.3418E-03     336.144E-03     142.088E+06    -96.0961E+06    -148.365E+06    -256.615E+06    -148.374E+06    -256.606E+06    -96.0961E+06    -852.082E+03
             781     34.4820E-03     2.54383E-03     34.3881E-03     329.894E-03    -164.772E-03    -165.121E-03    -164.724E-03     329.846E-03    -165.121E-03     9.41244E-03     333.739E-03     153.612E+06    -126.682E+06    -161.690E+06    -294.487E+06    -161.696E+06    -294.480E+06    -126.682E+06    -677.297E+03
             782     34.4224E-03     1.69645E-03     34.3805E-03     329.978E-03    -164.864E-03    -165.114E-03    -164.917E-03     329.962E-03    -165.045E-03     5.49237E-03     331.822E-03     164.948E+06    -153.810E+06    -172.339E+06    -327.084E+06    -172.345E+06    -327.078E+06    -153.810E+06     58.4831E+03
             783     34.3866E-03     848.335E-06     34.3761E-03     329.906E-03    -164.684E-03    -165.222E-03    -164.928E-03     329.901E-03    -164.973E-03     2.60162E-03     330.509E-03     174.758E+06    -172.794E+06    -178.972E+06    -350.510E+06    -178.440E+06    -350.504E+06    -173.332E+06     518.277E+03
             784     36.6894E-03     14.4284E-03     33.7332E-03     331.503E-03    -164.911E-03    -166.591E-03    -163.837E-03     328.814E-03    -164.977E-03     70.7997E-03     400.827E-03     137.170E+06     131.180E+06     126.643E+06    -8.19717E+06    -8.19278E+06     126.638E+06     131.180E+06    -501.521E+03
             785     36.2607E-03     13.5809E-03     33.6214E-03     331.288E-03    -164.801E-03    -166.487E-03    -163.475E-03     328.395E-03    -164.920E-03     74.3227E-03     400.442E-03     126.903E+06     112.030E+06     109.226E+06    -16.2496E+06    -16.2402E+06     110.438E+06     110.809E+06    -1.00287E+06
             786     35.8795E-03     12.7291E-03     33.5456E-03     329.998E-03    -164.772E-03    -165.226E-03    -163.205E-03     328.097E-03    -164.891E-03     61.2252E-03     383.753E-03     121.258E+06     100.028E+06     94.9980E+06    -23.6454E+06    -23.6366E+06     100.019E+06     94.9980E+06    -1.00228E+06
             787     35.5136E-03     11.8811E-03     33.4672E-03     330.022E-03    -164.874E-03    -165.148E-03    -163.398E-03     328.274E-03    -164.876E-03     58.6043E-03     377.191E-03     121.331E+06     95.2869E+06     83.3168E+06    -31.5269E+06    -31.5229E+06     95.2829E+06     83.3168E+06    -452.188E+03
             788     35.1715E-03     11.0321E-03     33.3965E-03     329.749E-03    -164.838E-03    -164.911E-03    -163.417E-03     328.317E-03    -164.900E-03     53.1263E-03     369.258E-03     126.253E+06     91.2055E+06     79.5971E+06    -40.3677E+06    -40.3639E+06     91.2016E+06     79.5971E+06     495.655E+03
             789     34.8535E-03     10.1826E-03     33.3329E-03     329.802E-03    -164.759E-03    -165.044E-03    -163.619E-03     328.562E-03    -164.943E-03     49.4149E-03     363.699E-03     120.774E+06     77.2510E+06     61.6955E+06    -50.2255E+06    -50.2167E+06     65.1337E+06     73.8041E+06     587.036E+03
             790     34.5579E-03     9.33443E-03     33.2734E-03     329.553E-03    -164.477E-03    -165.075E-03    -163.521E-03     328.496E-03    -164.976E-03     45.6175E-03     358.770E-03     105.321E+06     56.3576E+06     9.21644E+06    -61.2469E+06    -61.2263E+06     9.19584E+06     56.3576E+06     375.451E+03
             791     34.2843E-03     8.48504E-03     33.2177E-03     329.187E-03    -164.157E-03    -165.030E-03    -163.244E-03     328.274E-03    -165.030E-03     42.3628E-03     354.611E-03     100.051E+06     39.9178E+06    -37.7342E+06    -72.4021E+06    -72.3526E+06    -37.7836E+06     39.9178E+06     250.101E+03
             792     34.0383E-03     7.63594E-03     33.1707E-03     329.150E-03    -164.054E-03    -165.096E-03    -163.295E-03     328.391E-03    -165.096E-03     38.5992E-03     351.296E-03     103.623E+06     23.1879E+06    -70.8736E+06     -87.417E+06    -83.6064E+06    -74.6842E+06     23.1879E+06     335.948E+03
             793     33.8139E-03     6.78527E-03     33.1262E-03     329.408E-03    -164.261E-03    -165.147E-03    -163.666E-03     328.813E-03    -165.147E-03     34.1472E-03     348.426E-03     109.045E+06     4.90623E+06    -94.7750E+06    -111.194E+06    -95.1441E+06    -110.825E+06     4.90623E+06     617.539E+03
             794     33.6148E-03     5.93772E-03     33.0862E-03     329.712E-03    -164.565E-03    -165.147E-03    -164.121E-03     329.268E-03    -165.147E-03     29.4934E-03     345.608E-03     115.319E+06    -16.4346E+06    -107.571E+06    -145.397E+06    -107.582E+06    -145.385E+06    -16.4346E+06     321.320E+03
             795     33.4466E-03     5.09055E-03     33.0570E-03     329.609E-03    -164.484E-03    -165.125E-03    -164.175E-03     329.301E-03    -165.125E-03     24.5388E-03     342.283E-03     126.815E+06    -40.4210E+06    -121.060E+06    -186.097E+06    -121.062E+06    -186.096E+06    -40.4210E+06    -163.290E+03
             796     33.3014E-03     4.24125E-03     33.0302E-03     329.458E-03    -164.351E-03    -165.106E-03    -164.162E-03     329.269E-03    -165.106E-03     19.0934E-03     338.918E-03     136.134E+06    -66.6033E+06    -135.221E+06    -223.128E+06    -135.224E+06    -223.125E+06    -66.6033E+06    -302.245E+03
             797     33.1856E-03     3.39259E-03     33.0118E-03     329.539E-03    -164.461E-03    -165.078E-03    -164.357E-03     329.435E-03    -165.078E-03     14.1754E-03     335.977E-03     141.895E+06    -96.1255E+06    -148.943E+06    -256.527E+06    -148.946E+06    -256.524E+06    -96.1255E+06    -24.2130E+03
             798     33.0960E-03     2.54507E-03     32.9980E-03     329.730E-03    -164.697E-03    -165.033E-03    -164.646E-03     329.679E-03    -165.033E-03     9.79558E-03     333.569E-03     153.784E+06    -125.995E+06    -161.337E+06    -294.084E+06    -161.340E+06    -294.080E+06    -125.995E+06     91.5332E+03
             799     33.0349E-03     1.69628E-03     32.9913E-03     329.846E-03    -164.853E-03    -164.993E-03    -164.903E-03     329.827E-03    -164.924E-03     5.89318E-03     331.689E-03     164.593E+06    -154.196E+06    -172.142E+06    -326.829E+06    -172.150E+06    -326.821E+06    -154.196E+06    -490.499E+03
             800     32.9971E-03     848.493E-06     32.9862E-03     329.607E-03    -164.286E-03    -165.320E-03    -165.315E-03     329.602E-03    -164.286E-03     2.80985E-03     330.203E-03     172.912E+06    -174.538E+06    -180.165E+06    -350.160E+06    -180.179E+06    -350.146E+06    -174.538E+06    -778.345E+03
             801     35.4170E-03     14.4287E-03     32.3447E-03     330.861E-03    -164.717E-03    -166.144E-03    -163.166E-03     328.168E-03    -165.001E-03     70.7856E-03     400.189E-03     137.634E+06     131.285E+06     127.082E+06    -8.39359E+06    -8.38904E+06     127.077E+06     131.285E+06    -591.468E+03
             802     34.9732E-03     13.5773E-03     32.2301E-03     331.417E-03    -164.964E-03    -166.453E-03    -163.546E-03     328.511E-03    -164.964E-03     74.5571E-03     400.664E-03     128.205E+06     113.160E+06     110.050E+06    -16.5646E+06    -16.5510E+06     112.004E+06     111.192E+06    -1.24130E+06
             803     34.5854E-03     12.7306E-03     32.1571E-03     330.632E-03    -164.915E-03    -165.717E-03    -163.801E-03     328.716E-03    -164.915E-03     61.5583E-03     384.347E-03     122.361E+06     100.740E+06     94.8954E+06    -24.4216E+06    -24.4061E+06     100.724E+06     94.8954E+06    -1.38462E+06
             804     34.2048E-03     11.8809E-03     32.0752E-03     330.293E-03    -164.869E-03    -165.424E-03    -163.661E-03     328.530E-03    -164.869E-03     58.9131E-03     377.343E-03     121.243E+06     94.0636E+06     81.9978E+06    -32.7021E+06    -32.6947E+06     94.0562E+06     81.9978E+06    -716.312E+03
             805     33.8567E-03     11.0316E-03     32.0091E-03     329.821E-03    -164.821E-03    -165.000E-03    -163.488E-03     328.368E-03    -164.880E-03     53.5091E-03     369.312E-03     126.335E+06     90.6140E+06     78.5746E+06    -41.2383E+06    -41.2362E+06     90.6119E+06     78.5746E+06     196.800E+03
             806     33.5247E-03     10.1828E-03     31.9408E-03     329.667E-03    -164.621E-03    -165.046E-03    -163.485E-03     328.411E-03    -164.926E-03     49.7274E-03     363.470E-03     121.304E+06     77.0969E+06     61.8118E+06    -50.8692E+06    -50.8638E+06     65.6573E+06     73.2461E+06     687.301E+03
             807     33.2221E-03     9.33431E-03     31.8839E-03     329.502E-03    -164.378E-03    -165.124E-03    -163.476E-03     328.442E-03    -164.966E-03     45.6547E-03     358.776E-03     105.522E+06     55.9583E+06     9.88769E+06    -61.6827E+06    -61.6698E+06     9.87474E+06     55.9583E+06     560.081E+03
             808     32.9420E-03     8.48429E-03     31.8306E-03     329.238E-03    -164.164E-03    -165.074E-03    -163.341E-03     328.357E-03    -165.016E-03     41.5732E-03     354.824E-03     99.8772E+06     39.7945E+06    -36.7307E+06    -72.6702E+06    -72.6243E+06    -36.7766E+06     39.7945E+06     98.7595E+03
             809     32.6842E-03     7.63468E-03     31.7800E-03     329.336E-03    -164.280E-03    -165.056E-03    -163.557E-03     328.613E-03    -165.056E-03     37.6764E-03     351.566E-03     103.164E+06     22.8193E+06    -70.3679E+06    -87.4204E+06    -83.6660E+06    -74.1223E+06     22.8193E+06    -498.469E+03
             810     32.4542E-03     6.78880E-03     31.7362E-03     329.372E-03    -164.288E-03    -165.084E-03    -163.710E-03     328.794E-03    -165.084E-03     33.6867E-03     348.392E-03     108.847E+06     4.28267E+06    -95.6924E+06    -111.317E+06    -95.7700E+06    -111.240E+06     4.28267E+06    -329.667E+03
             811     32.2495E-03     5.93840E-03     31.6981E-03     329.166E-03    -164.054E-03    -165.112E-03    -163.616E-03     328.727E-03    -165.112E-03     29.2969E-03     345.035E-03     115.131E+06    -16.5633E+06    -108.914E+06    -144.922E+06    -108.948E+06    -144.888E+06    -16.5633E+06     570.328E+03
             812     32.0714E-03     5.08873E-03     31.6652E-03     329.480E-03    -164.349E-03    -165.131E-03    -164.038E-03     329.168E-03    -165.131E-03     24.6619E-03     342.160E-03     125.281E+06    -41.0471E+06    -122.433E+06    -184.746E+06    -122.452E+06    -184.727E+06    -41.0471E+06     459.334E+03
             813     31.9247E-03     4.24188E-03     31.6416E-03     329.659E-03    -164.556E-03    -165.103E-03    -164.353E-03     329.456E-03    -165.103E-03     19.8346E-03     339.096E-03     134.628E+06    -67.5785E+06    -136.310E+06    -222.424E+06    -136.311E+06    -222.422E+06    -67.5785E+06    -25.0478E+03
             814     31.8036E-03     3.39340E-03     31.6220E-03     329.604E-03    -164.561E-03    -165.043E-03    -164.447E-03     329.490E-03    -165.043E-03     14.7609E-03     336.013E-03     141.314E+06    -96.5970E+06    -150.029E+06    -256.525E+06    -150.031E+06    -256.524E+06    -96.5970E+06     171.794E+03
             815     31.7118E-03     2.54383E-03     31.6096E-03     329.597E-03    -164.608E-03    -164.989E-03    -164.558E-03     329.546E-03    -164.989E-03     9.68977E-03     333.413E-03     152.462E+06    -126.371E+06    -162.324E+06    -293.296E+06    -162.327E+06    -293.293E+06    -126.371E+06     405.490E+03
             816     31.6458E-03     1.69640E-03     31.6003E-03     329.582E-03    -164.603E-03    -164.978E-03    -164.585E-03     329.563E-03    -164.978E-03     5.76256E-03     331.418E-03     162.793E+06    -154.390E+06    -172.611E+06    -325.324E+06    -172.619E+06    -325.316E+06    -154.390E+06    -6.64964E+03
             817     31.6103E-03     847.929E-06     31.5989E-03     329.902E-03    -164.238E-03    -165.664E-03    -165.016E-03     329.895E-03    -164.879E-03     3.63987E-03     330.518E-03     172.249E+06    -174.539E+06    -181.768E+06    -350.264E+06    -180.009E+06    -350.244E+06    -176.319E+06    -160.593E+03
             818     34.1520E-03     14.4276E-03     30.9548E-03     330.888E-03    -164.668E-03    -166.220E-03    -163.251E-03     328.260E-03    -165.009E-03     70.0359E-03     400.062E-03     138.499E+06     132.063E+06     128.281E+06    -8.27742E+06    -8.27618E+06     128.280E+06     132.063E+06    -302.348E+03
             819     33.6991E-03     13.5790E-03     30.8422E-03     331.263E-03    -164.812E-03    -166.451E-03    -163.462E-03     328.429E-03    -164.967E-03     73.6651E-03     400.281E-03     129.124E+06     114.231E+06     110.410E+06    -16.7452E+06    -16.7384E+06     113.369E+06     111.266E+06    -828.180E+03
             820     33.2920E-03     12.7286E-03     30.7627E-03     330.387E-03    -164.769E-03    -165.618E-03    -163.572E-03     328.497E-03    -164.924E-03     61.1068E-03     384.007E-03     123.209E+06     100.792E+06     93.5935E+06    -25.8524E+06    -25.8397E+06     100.780E+06     93.5935E+06    -1.22432E+06
             821     32.9083E-03     11.8807E-03     30.6888E-03     330.601E-03    -164.876E-03    -165.725E-03    -163.969E-03     328.845E-03    -164.876E-03     58.8485E-03     377.445E-03     121.878E+06     93.2269E+06     80.5989E+06    -34.4186E+06    -34.4063E+06     93.2146E+06     80.5989E+06    -1.20216E+06
             822     32.5421E-03     11.0321E-03     30.6151E-03     330.096E-03    -164.782E-03    -165.314E-03    -163.803E-03     328.668E-03    -164.866E-03     53.0563E-03     369.450E-03     126.550E+06     89.6658E+06     77.7023E+06    -42.3574E+06    -42.3481E+06     89.6564E+06     77.7023E+06    -757.274E+03
             823     32.2067E-03     10.1834E-03     30.5544E-03     329.431E-03    -164.506E-03    -164.925E-03    -163.307E-03     328.211E-03    -164.905E-03     48.9917E-03     363.262E-03     121.858E+06     76.3710E+06     61.8732E+06    -51.8593E+06    -51.8469E+06     65.4300E+06     72.8017E+06     329.552E+03
             824     31.8888E-03     9.33279E-03     30.4925E-03     329.472E-03    -164.469E-03    -165.003E-03    -163.493E-03     328.437E-03    -164.945E-03     45.0910E-03     358.793E-03     105.413E+06     55.6668E+06     11.1194E+06    -61.6513E+06    -61.6112E+06     11.0793E+06     55.6668E+06     275.794E+03
             825     31.6014E-03     8.48634E-03     30.4406E-03     329.601E-03    -164.573E-03    -165.029E-03    -163.761E-03     328.731E-03    -164.970E-03     41.3851E-03     355.192E-03     99.0921E+06     39.9230E+06    -35.5956E+06    -71.6616E+06    -71.6080E+06    -35.6492E+06     39.9230E+06    -731.188E+03
             826     31.3367E-03     7.63810E-03     30.3915E-03     329.188E-03    -164.196E-03    -164.992E-03    -163.447E-03     328.438E-03    -164.992E-03     38.3600E-03     351.358E-03     102.853E+06     22.7104E+06    -70.6597E+06    -86.8488E+06    -83.8455E+06    -73.6631E+06     22.7104E+06    -250.621E+03
             827     31.0957E-03     6.78614E-03     30.3461E-03     329.016E-03    -163.977E-03    -165.039E-03    -163.374E-03     328.413E-03    -165.039E-03     34.3777E-03     348.027E-03     108.352E+06     3.16017E+06    -96.7276E+06    -111.608E+06    -96.7981E+06    -111.537E+06     3.16017E+06     94.8254E+03
             828     30.8859E-03     5.93886E-03     30.3096E-03     329.124E-03    -164.035E-03    -165.089E-03    -163.580E-03     328.670E-03    -165.089E-03     29.8248E-03     344.962E-03     114.837E+06    -17.2860E+06    -109.693E+06    -145.276E+06    -109.719E+06    -145.250E+06    -17.2860E+06     121.139E+03
             829     30.7014E-03     5.09019E-03     30.2765E-03     329.268E-03    -164.139E-03    -165.129E-03    -163.823E-03     328.953E-03    -165.129E-03     24.7597E-03     341.885E-03     124.553E+06    -40.8618E+06    -122.729E+06    -183.648E+06    -122.754E+06    -183.623E+06    -40.8618E+06     521.034E+03
             830     30.5467E-03     4.24006E-03     30.2510E-03     329.729E-03    -164.577E-03    -165.152E-03    -164.427E-03     329.538E-03    -165.111E-03     19.1800E-03     339.172E-03     133.755E+06    -67.6609E+06    -136.381E+06    -221.475E+06    -136.386E+06    -221.470E+06    -67.6609E+06     332.087E+03
             831     30.4225E-03     3.39218E-03     30.2327E-03     329.801E-03    -164.752E-03    -165.050E-03    -164.690E-03     329.699E-03    -165.009E-03     13.9129E-03     336.230E-03     140.931E+06    -97.0459E+06    -150.035E+06    -256.476E+06    -150.039E+06    -256.472E+06    -97.0459E+06    -55.4359E+03
             832     30.3259E-03     2.54585E-03     30.2188E-03     329.369E-03    -164.435E-03    -164.934E-03    -164.388E-03     329.323E-03    -164.934E-03     9.32077E-03     333.186E-03     150.519E+06    -127.518E+06    -162.670E+06    -292.204E+06    -162.672E+06    -292.202E+06    -127.518E+06    -285.742E+03
             833     30.2613E-03     1.69615E-03     30.2138E-03     329.519E-03    -164.431E-03    -165.088E-03    -164.549E-03     329.500E-03    -164.951E-03     5.89320E-03     331.351E-03     161.667E+06    -154.715E+06    -173.644E+06    -324.874E+06    -173.648E+06    -324.870E+06    -154.715E+06     354.492E+03
             834     30.2188E-03     847.547E-06     30.2069E-03     329.858E-03    -164.387E-03    -165.471E-03    -164.516E-03     329.850E-03    -165.334E-03     2.35653E-03     330.471E-03     172.023E+06    -172.525E+06    -181.624E+06    -348.896E+06    -179.856E+06    -348.884E+06    -174.305E+06     1.25865E+06
             835     32.8985E-03     14.4288E-03     29.5655E-03     331.242E-03    -164.814E-03    -166.428E-03    -163.594E-03     328.590E-03    -164.997E-03     70.2662E-03     400.386E-03     138.971E+06     132.589E+06     129.234E+06    -8.02003E+06    -8.01890E+06     129.233E+06     132.589E+06    -161.825E+03
             836     32.4306E-03     13.5796E-03     29.4506E-03     331.349E-03    -164.786E-03    -166.563E-03    -163.550E-03     328.491E-03    -164.941E-03     73.8992E-03     400.252E-03     129.190E+06     114.290E+06     110.710E+06    -16.6373E+06    -16.6350E+06     113.552E+06     111.446E+06    -90.4026E+03
             837     32.0167E-03     12.7301E-03     29.3771E-03     330.294E-03    -164.740E-03    -165.554E-03    -163.522E-03     328.417E-03    -164.895E-03     60.8723E-03     383.844E-03     122.998E+06     101.381E+06      93.902E+06    -25.1751E+06    -25.1703E+06     101.376E+06      93.902E+06    -229.459E+03
             838     31.6110E-03     11.8802E-03     29.2936E-03     330.524E-03    -164.845E-03    -165.679E-03    -163.966E-03     328.811E-03    -164.845E-03     58.0696E-03     377.343E-03     121.995E+06     94.3354E+06     80.9531E+06    -33.7455E+06    -33.7365E+06     94.3264E+06     80.9531E+06    -808.614E+03
             839     31.2403E-03     11.0326E-03     29.2274E-03     330.010E-03    -164.745E-03    -165.265E-03    -163.798E-03     328.627E-03    -164.829E-03     52.2256E-03     369.355E-03     126.886E+06     88.8406E+06     76.4816E+06    -43.6782E+06    -43.6647E+06      88.827E+06     76.4816E+06    -1.31314E+06
             840     30.8894E-03     10.1831E-03     29.1627E-03     329.477E-03    -164.546E-03    -164.931E-03    -163.420E-03     328.278E-03    -164.859E-03     48.5740E-03     363.288E-03     121.665E+06     75.0803E+06     60.4588E+06    -53.0000E+06    -52.9487E+06     64.0195E+06     71.4683E+06    -1.21588E+06
             841     30.5655E-03     9.33598E-03     29.1048E-03     329.028E-03    -164.117E-03    -164.911E-03    -163.068E-03     327.979E-03    -164.911E-03     45.4224E-03     358.179E-03     105.557E+06     55.3934E+06     12.6984E+06    -62.4453E+06    -62.3766E+06     12.6296E+06     55.3934E+06    -935.004E+03
             842     30.2633E-03     8.48436E-03     29.0496E-03     329.220E-03    -164.246E-03    -164.975E-03    -163.324E-03     328.299E-03    -164.975E-03     42.5567E-03     354.635E-03     99.3473E+06     38.4344E+06    -34.9324E+06    -73.7375E+06    -73.7096E+06    -34.9602E+06     38.4344E+06    -626.121E+03
             843     29.9907E-03     7.63543E-03     29.0024E-03     329.493E-03    -164.486E-03    -165.007E-03    -163.728E-03     328.735E-03    -165.007E-03     38.5840E-03     351.586E-03     102.591E+06     21.4235E+06    -71.7326E+06    -87.8348E+06    -84.9240E+06    -74.6434E+06     21.4235E+06    -132.452E+03
             844     29.7436E-03     6.78848E-03     28.9586E-03     329.128E-03    -164.094E-03    -165.034E-03    -163.499E-03     328.533E-03    -165.034E-03     34.1616E-03     348.065E-03     107.776E+06     3.38179E+06    -96.4522E+06    -110.515E+06    -96.5573E+06    -110.410E+06     3.38179E+06     215.066E+03
             845     29.5222E-03     5.93782E-03     28.9189E-03     329.288E-03    -164.230E-03    -165.058E-03    -163.783E-03     328.842E-03    -165.058E-03     29.5224E-03     345.117E-03     114.471E+06    -17.6643E+06    -109.582E+06    -145.173E+06    -109.589E+06    -145.166E+06    -17.6643E+06     31.1666E+03
             846     29.3328E-03     5.08936E-03     28.8879E-03     329.584E-03    -164.547E-03    -165.037E-03    -164.248E-03     329.285E-03    -165.037E-03     24.1247E-03     342.187E-03     123.952E+06    -41.8434E+06    -123.479E+06    -184.073E+06    -123.486E+06    -184.066E+06    -41.8434E+06     140.181E+03
             847     29.1710E-03     4.24217E-03     28.8609E-03     329.379E-03    -164.353E-03    -165.026E-03    -164.212E-03     329.197E-03    -164.985E-03     18.7211E-03     338.785E-03     132.541E+06    -67.8840E+06    -136.885E+06    -220.338E+06    -136.889E+06    -220.334E+06    -67.8840E+06     383.067E+03
             848     29.0409E-03     3.39461E-03     28.8418E-03     329.210E-03    -164.217E-03    -164.992E-03    -164.158E-03     329.109E-03    -164.951E-03     13.8212E-03     335.665E-03     139.889E+06    -97.1193E+06    -150.167E+06    -255.451E+06    -150.171E+06    -255.447E+06    -97.1193E+06     72.0574E+03
             849     28.9442E-03     2.54383E-03     28.8322E-03     329.512E-03    -164.368E-03    -165.144E-03    -164.564E-03     329.463E-03    -164.899E-03     9.52127E-03     333.346E-03     149.574E+06    -128.298E+06    -163.256E+06    -291.942E+06    -163.259E+06    -291.939E+06    -128.298E+06    -7.81886E+03
             850     28.8727E-03     1.69621E-03     28.8228E-03     329.655E-03    -164.531E-03    -165.124E-03    -164.894E-03     329.637E-03    -164.743E-03     5.53959E-03     331.481E-03     161.103E+06    -155.634E+06    -173.373E+06    -324.698E+06    -173.380E+06    -324.691E+06    -155.634E+06     37.0862E+03
             851     28.8306E-03     849.448E-06     28.8180E-03     329.172E-03    -164.117E-03    -165.055E-03    -164.245E-03     329.164E-03    -164.919E-03     2.20014E-03     329.782E-03     170.509E+06    -173.829E+06    -181.308E+06    -347.936E+06    -180.149E+06    -347.918E+06    -175.006E+06    -632.060E+03
             852     31.6544E-03     14.4282E-03     28.1750E-03     331.273E-03    -164.856E-03    -166.416E-03    -163.629E-03     328.617E-03    -164.988E-03     70.4604E-03     400.398E-03     139.351E+06     132.152E+06     129.352E+06    -8.57097E+06    -8.57009E+06     129.351E+06     132.152E+06    -189.905E+03
             853     31.1741E-03     13.5785E-03     28.0615E-03     331.887E-03    -164.915E-03    -166.972E-03    -164.141E-03     329.056E-03    -164.915E-03     73.5983E-03     400.562E-03     129.721E+06     114.570E+06     111.236E+06    -16.7710E+06    -16.7698E+06     113.942E+06     111.862E+06     122.918E+03
             854     30.7446E-03     12.7304E-03     27.9851E-03     330.826E-03    -164.827E-03    -165.999E-03    -164.163E-03     328.990E-03    -164.827E-03     60.2875E-03     384.128E-03     123.538E+06     102.501E+06     95.1285E+06    -24.5449E+06    -24.5439E+06     102.500E+06     95.1285E+06     240.422E+03
             855     30.3297E-03     11.8828E-03     27.9050E-03     329.938E-03    -164.606E-03    -165.332E-03    -163.504E-03     328.266E-03    -164.763E-03     57.3127E-03     376.662E-03     121.938E+06     95.4001E+06     81.5350E+06    -32.8115E+06    -32.8099E+06     95.3985E+06     81.5350E+06    -141.062E+03
             856     29.9429E-03     11.0325E-03     27.8363E-03     329.324E-03    -164.447E-03    -164.878E-03    -163.162E-03     327.943E-03    -164.780E-03     52.1440E-03     368.562E-03     125.758E+06     89.6628E+06     76.8838E+06    -41.8856E+06    -41.8793E+06     89.6564E+06     76.8838E+06    -753.328E+03
             857     29.5816E-03     10.1847E-03     27.7730E-03     329.217E-03    -164.302E-03    -164.915E-03    -163.159E-03     328.002E-03    -164.843E-03     48.8725E-03     362.890E-03     120.513E+06     74.7018E+06     60.4248E+06    -52.0975E+06    -52.0540E+06     63.9600E+06     71.1231E+06    -1.74164E+06
             858     29.2454E-03     9.33333E-03     27.7161E-03     329.125E-03    -164.134E-03    -164.991E-03    -163.176E-03     328.077E-03    -164.901E-03     45.3732E-03     358.160E-03     105.339E+06     54.3404E+06     11.4780E+06    -63.1180E+06    -63.0606E+06     11.4206E+06     54.3404E+06    -1.55374E+06
             859     28.9346E-03     8.48501E-03     27.6625E-03     329.173E-03    -164.122E-03    -165.051E-03    -163.330E-03     328.291E-03    -164.961E-03     41.6076E-03     354.368E-03     99.3696E+06     38.4233E+06    -34.8394E+06    -73.9833E+06    -73.9619E+06    -34.8608E+06     38.4233E+06    -538.570E+03
             860     28.6466E-03     7.63647E-03     27.6100E-03     329.332E-03    -164.339E-03    -164.993E-03    -163.628E-03     328.620E-03    -164.993E-03     37.3966E-03     351.301E-03     102.385E+06     20.7050E+06    -71.6325E+06    -88.5998E+06    -85.6677E+06    -74.5646E+06     20.7050E+06    -601.628E+03
             861     28.3932E-03     6.78708E-03     27.5701E-03     329.646E-03    -164.462E-03    -165.185E-03    -164.091E-03     329.073E-03    -164.982E-03     33.5922E-03     348.519E-03     107.232E+06     2.14706E+06    -97.7652E+06    -110.859E+06    -97.8295E+06    -110.795E+06     2.14706E+06    -231.977E+03
             862     28.1634E-03     5.93942E-03     27.5300E-03     329.507E-03    -164.373E-03    -165.134E-03    -164.147E-03     329.078E-03    -164.931E-03     28.9536E-03     345.185E-03     113.745E+06    -18.1914E+06    -110.278E+06    -144.546E+06    -110.283E+06    -144.541E+06    -18.1914E+06     298.844E+03
             863     27.9641E-03     5.09156E-03     27.4966E-03     329.122E-03    -164.235E-03    -164.888E-03    -163.945E-03     328.832E-03    -164.888E-03     23.7861E-03     341.645E-03     123.324E+06    -42.1889E+06    -123.490E+06    -183.669E+06    -123.496E+06    -183.663E+06    -42.1889E+06    -141.087E+03
             864     27.7980E-03     4.24269E-03     27.4723E-03     328.750E-03    -163.854E-03    -164.896E-03    -163.665E-03     328.561E-03    -164.896E-03     19.1558E-03     338.174E-03     132.129E+06    -68.1334E+06    -137.062E+06    -220.144E+06    -137.068E+06    -220.138E+06    -68.1334E+06    -288.089E+03
             865     27.6636E-03     3.39156E-03     27.4549E-03     329.003E-03    -164.074E-03    -164.929E-03    -163.968E-03     328.897E-03    -164.929E-03     14.2019E-03     335.436E-03     139.092E+06    -97.5101E+06    -150.814E+06    -255.056E+06    -150.815E+06    -255.055E+06    -97.5101E+06     184.489E+03
             866     27.5588E-03     2.54517E-03     27.4410E-03     329.606E-03    -164.482E-03    -165.124E-03    -164.677E-03     329.556E-03    -164.879E-03     9.63913E-03     333.398E-03     149.473E+06    -127.775E+06    -163.102E+06    -291.423E+06    -163.104E+06    -291.421E+06    -127.775E+06     472.906E+03
             867     27.4854E-03     1.69815E-03     27.4329E-03     329.431E-03    -164.422E-03    -165.010E-03    -164.646E-03     329.411E-03    -164.765E-03     5.88791E-03     331.255E-03     160.261E+06    -155.392E+06    -172.936E+06    -323.511E+06    -172.939E+06    -323.507E+06    -155.392E+06    -139.003E+03
             868     27.4457E-03     847.684E-06     27.4326E-03     329.349E-03    -164.284E-03    -165.065E-03    -164.433E-03     329.341E-03    -164.908E-03     3.15907E-03     329.972E-03     170.492E+06    -175.275E+06    -181.361E+06    -348.703E+06    -180.211E+06    -348.676E+06    -176.452E+06    -426.331E+03
             869     30.4235E-03     14.4287E-03     26.7844E-03     331.999E-03    -164.876E-03    -167.123E-03    -164.496E-03     329.443E-03    -164.946E-03     69.4927E-03     400.802E-03     140.014E+06     132.594E+06     130.290E+06    -8.54942E+06     -8.5489E+06     130.347E+06     132.536E+06    -170.195E+03
             870     29.9297E-03     13.5806E-03     26.6712E-03     332.095E-03    -164.828E-03    -167.268E-03    -164.561E-03     329.389E-03    -164.828E-03     72.1522E-03     400.107E-03     129.600E+06     114.254E+06     111.756E+06    -16.5623E+06    -16.5609E+06     114.080E+06     111.929E+06    -330.204E+03
             871     29.4832E-03     12.7328E-03     26.5920E-03     330.391E-03    -164.727E-03    -165.664E-03    -163.874E-03     328.602E-03    -164.727E-03     59.4815E-03     383.292E-03     123.086E+06     102.098E+06     94.7095E+06    -24.4866E+06    -24.4854E+06     102.096E+06     94.7095E+06    -76.1360E+03
             872     29.0582E-03     11.8830E-03     26.5174E-03     329.680E-03    -164.514E-03    -165.166E-03    -163.368E-03     328.038E-03    -164.670E-03     56.8014E-03     375.901E-03     121.936E+06     95.9966E+06     81.4828E+06    -32.4855E+06    -32.4853E+06     95.9964E+06     81.4828E+06     69.9011E+03
             873     28.6565E-03     11.0337E-03     26.4471E-03     328.817E-03    -164.011E-03    -164.806E-03    -162.771E-03     327.474E-03    -164.704E-03     51.3143E-03     367.565E-03     125.971E+06     91.1188E+06     77.5624E+06    -40.9813E+06    -40.9754E+06     91.1129E+06     77.5624E+06    -593.411E+03
             874     28.2809E-03     10.1824E-03     26.3843E-03     328.832E-03    -164.044E-03    -164.787E-03    -162.906E-03     327.691E-03    -164.786E-03     47.2895E-03     362.172E-03     120.375E+06     75.8855E+06     60.7159E+06    -51.1390E+06    -51.1297E+06     64.8701E+06     71.7221E+06    -967.644E+03
             875     27.9327E-03     9.33500E-03     26.3267E-03     329.454E-03    -164.540E-03    -164.914E-03    -163.652E-03     328.475E-03    -164.823E-03     43.9172E-03     358.208E-03     104.378E+06     54.2450E+06     11.1775E+06    -62.2703E+06    -62.2480E+06     11.1552E+06     54.2450E+06    -736.470E+03
             876     27.6076E-03     8.48697E-03     26.2707E-03     329.301E-03    -164.378E-03    -164.923E-03    -163.639E-03     328.472E-03    -164.833E-03     40.3778E-03     354.264E-03     98.9003E+06     37.8508E+06    -35.6270E+06    -73.8659E+06    -73.8387E+06    -35.6542E+06     37.8508E+06    -651.057E+03
             877     27.3142E-03     7.63674E-03     26.2249E-03     329.069E-03    -164.229E-03    -164.839E-03    -163.550E-03     328.389E-03    -164.839E-03     36.5258E-03     350.715E-03     102.097E+06     20.5584E+06    -72.0671E+06    -88.1130E+06    -85.5771E+06    -74.6030E+06     20.5584E+06    -450.783E+03
             878     27.0428E-03     6.78826E-03     26.1769E-03     329.301E-03    -164.277E-03    -165.025E-03    -163.943E-03     328.765E-03    -164.822E-03     32.4417E-03     347.896E-03     107.046E+06     1.81687E+06    -97.4225E+06    -111.173E+06    -97.4902E+06    -111.105E+06     1.81687E+06    -632.050E+03
             879     26.8073E-03     5.94107E-03     26.1407E-03     328.930E-03    -163.934E-03    -164.996E-03    -163.718E-03     328.511E-03    -164.793E-03     28.6817E-03     344.491E-03     113.824E+06    -17.9224E+06    -109.708E+06    -144.648E+06    -109.756E+06    -144.600E+06    -17.9224E+06    -541.077E+03
             880     26.6004E-03     5.09123E-03     26.1086E-03     328.515E-03    -163.703E-03    -164.812E-03    -163.395E-03     328.207E-03    -164.812E-03     24.4326E-03     340.974E-03     123.190E+06    -41.4628E+06    -123.268E+06    -182.707E+06    -123.278E+06    -182.697E+06    -41.4628E+06    -107.806E+03
             881     26.4274E-03     4.24129E-03     26.0849E-03     328.870E-03    -164.010E-03    -164.860E-03    -163.858E-03     328.688E-03    -164.830E-03     18.6927E-03     338.206E-03     131.657E+06    -68.8418E+06    -137.714E+06    -220.300E+06    -137.725E+06    -220.289E+06    -68.8418E+06    -193.379E+03
             882     26.2852E-03     3.39475E-03     26.0651E-03     329.076E-03    -164.251E-03    -164.825E-03    -164.186E-03     328.981E-03    -164.795E-03     13.5710E-03     335.387E-03     138.995E+06    -97.6868E+06    -151.137E+06    -255.179E+06    -151.139E+06    -255.177E+06    -97.6868E+06    -34.5635E+03
             883     26.1755E-03     2.54497E-03     26.0515E-03     328.905E-03    -164.115E-03    -164.790E-03    -164.069E-03     328.858E-03    -164.790E-03     9.14452E-03     332.671E-03     149.256E+06    -127.151E+06    -163.157E+06    -290.795E+06    -163.157E+06    -290.794E+06    -127.151E+06     90.6431E+03
             884     26.1009E-03     1.69450E-03     26.0458E-03     329.231E-03    -164.331E-03    -164.900E-03    -164.366E-03     329.214E-03    -164.848E-03     5.14865E-03     331.071E-03     159.144E+06    -155.477E+06    -173.685E+06    -322.752E+06    -173.686E+06    -322.750E+06    -155.477E+06     76.4339E+03
             885     26.0550E-03     848.091E-06     26.0412E-03     329.692E-03    -164.471E-03    -165.221E-03    -165.088E-03     329.687E-03    -164.599E-03     2.28544E-03     330.305E-03     170.469E+06    -175.203E+06    -180.898E+06    -348.408E+06    -180.481E+06    -348.390E+06    -175.638E+06     337.070E+03
             886     29.2056E-03     14.4303E-03     25.3916E-03     333.019E-03    -164.859E-03    -168.160E-03    -165.664E-03     330.522E-03    -164.859E-03     69.0091E-03     401.229E-03     140.259E+06     133.250E+06     131.019E+06    -8.10137E+06    -8.09997E+06     131.131E+06     133.137E+06    -161.310E+03
             887     28.6974E-03     13.5834E-03     25.2790E-03     331.974E-03    -164.692E-03    -167.281E-03    -164.677E-03     329.370E-03    -164.692E-03     70.7945E-03     399.039E-03     129.550E+06     114.230E+06     111.831E+06    -16.4866E+06    -16.4850E+06     114.228E+06     111.831E+06    -44.2646E+03
             888     28.2389E-03     12.7328E-03     25.2054E-03     329.915E-03    -164.584E-03    -165.332E-03    -163.619E-03     328.202E-03    -164.584E-03     58.1286E-03     382.124E-03     122.928E+06     101.381E+06     93.6067E+06    -25.2167E+06    -25.2106E+06     101.375E+06     93.6067E+06    -335.197E+03
             889     27.7941E-03     11.8840E-03     25.1253E-03     329.556E-03    -164.521E-03    -165.035E-03    -163.512E-03     328.033E-03    -164.521E-03     54.6376E-03     375.057E-03     122.645E+06     96.3148E+06     81.1695E+06    -33.1442E+06    -33.1388E+06     96.3093E+06     81.1695E+06    -433.325E+03
             890     27.3820E-03     11.0355E-03     25.0598E-03     329.024E-03    -164.155E-03    -164.870E-03    -163.298E-03     327.812E-03    -164.514E-03     48.8120E-03     367.095E-03     127.559E+06     92.4440E+06     77.8242E+06    -41.7114E+06    -41.7035E+06     92.4361E+06     77.8242E+06    -287.867E+03
             891     26.9922E-03     10.1868E-03     24.9961E-03     328.796E-03    -164.031E-03    -164.765E-03    -163.227E-03     327.766E-03    -164.539E-03     44.9822E-03     361.373E-03     121.338E+06     76.5110E+06     60.6064E+06    -51.8146E+06    -51.8061E+06     65.5614E+06     71.5475E+06    -381.635E+03
             892     26.6260E-03     9.33690E-03     24.9352E-03     328.673E-03    -164.116E-03    -164.557E-03    -163.242E-03     327.797E-03    -164.555E-03     41.4457E-03     356.758E-03     104.283E+06     53.7690E+06     11.4011E+06    -62.6652E+06    -62.6498E+06     11.3857E+06     53.7690E+06    -538.699E+03
             893     26.2913E-03     8.48712E-03     24.8837E-03     328.811E-03    -164.199E-03    -164.612E-03    -163.501E-03     328.065E-03    -164.563E-03     38.2603E-03     353.239E-03     98.6110E+06     37.8218E+06    -35.3130E+06    -73.4400E+06    -73.4162E+06    -35.3369E+06     37.8218E+06    -633.726E+03
             894     25.9818E-03     7.63995E-03     24.8332E-03     328.769E-03    -164.176E-03    -164.593E-03    -163.601E-03     328.145E-03    -164.545E-03     35.0018E-03     349.943E-03     102.078E+06     21.3458E+06    -71.6772E+06    -87.1556E+06    -84.5373E+06    -74.2955E+06     21.3458E+06    -598.919E+03
             895     25.7033E-03     6.79154E-03     24.7898E-03     328.038E-03    -163.487E-03    -164.551E-03    -162.980E-03     327.530E-03    -164.551E-03     31.5290E-03     346.237E-03     107.332E+06     2.39612E+06    -96.9693E+06    -110.989E+06    -97.0799E+06    -110.879E+06     2.39612E+06    -547.940E+03
             896     25.4548E-03     5.94001E-03     24.7520E-03     327.942E-03    -163.339E-03    -164.603E-03    -162.953E-03     327.556E-03    -164.603E-03     27.3719E-03     343.262E-03     113.785E+06    -18.6610E+06    -110.930E+06    -145.261E+06    -110.995E+06    -145.196E+06    -18.6610E+06    -625.144E+03
             897     25.2405E-03     5.09102E-03     24.7217E-03     328.457E-03    -163.826E-03    -164.631E-03    -163.560E-03     328.191E-03    -164.631E-03     22.6656E-03     340.715E-03     122.992E+06    -42.1403E+06    -124.254E+06    -183.037E+06    -124.265E+06    -183.026E+06    -42.1403E+06    -216.046E+03
             898     25.0560E-03     4.24363E-03     24.6940E-03     328.649E-03    -164.024E-03    -164.625E-03    -163.892E-03     328.486E-03    -164.594E-03     17.7142E-03     337.753E-03     131.453E+06    -68.3105E+06    -137.226E+06    -219.573E+06    -137.233E+06    -219.566E+06    -68.3105E+06     29.7441E+03
             899     24.9092E-03     3.39407E-03     24.6769E-03     328.547E-03    -163.985E-03    -164.562E-03    -163.927E-03     328.458E-03    -164.531E-03     13.0018E-03     334.773E-03     138.892E+06    -97.4633E+06    -151.167E+06    -254.880E+06    -151.170E+06    -254.877E+06    -97.4633E+06    -154.151E+03
             900     24.7956E-03     2.54558E-03     24.6646E-03     328.457E-03    -163.959E-03    -164.497E-03    -163.919E-03     328.417E-03    -164.497E-03     8.40186E-03     332.191E-03     148.259E+06    -128.100E+06    -164.227E+06    -290.776E+06    -164.229E+06    -290.774E+06    -128.100E+06    -349.091E+03
             901     24.7147E-03     1.69840E-03     24.6563E-03     328.640E-03    -164.076E-03    -164.565E-03    -164.114E-03     328.627E-03    -164.513E-03     4.82192E-03     330.442E-03     158.413E+06    -155.861E+06    -174.244E+06    -322.467E+06    -174.246E+06    -322.465E+06    -155.861E+06    -206.355E+03
             902     24.6667E-03     848.737E-06     24.6521E-03     328.975E-03    -164.071E-03    -164.904E-03    -164.530E-03     328.970E-03    -164.439E-03     2.54501E-03     329.575E-03     169.273E+06    -176.533E+06    -182.463E+06    -348.654E+06    -182.045E+06    -348.637E+06    -176.968E+06     281.927E+03
             903     28.0020E-03     14.4324E-03     23.9962E-03     333.953E-03    -164.768E-03    -169.185E-03    -166.767E-03     331.535E-03    -164.768E-03     68.3219E-03     401.814E-03     140.242E+06     132.850E+06     130.678E+06    -8.45846E+06    -8.45665E+06     130.732E+06     132.795E+06    -306.164E+03
             904     27.4822E-03     13.5839E-03     23.8904E-03     332.696E-03    -164.526E-03    -168.171E-03    -165.743E-03     330.269E-03    -164.526E-03     68.3392E-03     399.018E-03     129.945E+06     114.658E+06     111.503E+06    -16.8140E+06    -16.8124E+06     114.440E+06     111.719E+06    -30.8144E+03
             905     27.0063E-03     12.7372E-03     23.8140E-03     330.537E-03    -164.335E-03    -166.202E-03    -164.667E-03     329.001E-03    -164.335E-03     55.1247E-03     381.994E-03     123.184E+06     102.220E+06     94.6926E+06    -24.5428E+06    -24.5350E+06     102.212E+06     94.6926E+06    -190.445E+03
             906     26.5484E-03     11.8885E-03     23.7377E-03     329.514E-03    -164.192E-03    -165.322E-03    -163.988E-03     328.180E-03    -164.192E-03     51.1340E-03     374.148E-03     122.632E+06     96.3015E+06     81.3347E+06    -33.0266E+06    -33.0192E+06     96.2941E+06     81.3347E+06    -383.791E+03
             907     26.1172E-03     11.0388E-03     23.6697E-03     328.854E-03    -164.118E-03    -164.736E-03    -163.681E-03     327.799E-03    -164.118E-03     45.5035E-03     365.998E-03     127.980E+06     92.5725E+06     77.2537E+06    -42.2732E+06    -42.2679E+06     92.5671E+06     77.2537E+06    -241.085E+03
             908     25.7119E-03     10.1908E-03     23.6061E-03     328.377E-03    -163.938E-03    -164.438E-03    -163.378E-03     327.465E-03    -164.087E-03     42.2554E-03     359.960E-03     121.859E+06     76.8163E+06     61.4075E+06    -51.8684E+06    -51.8627E+06     66.3978E+06     71.8203E+06     12.8721E+03
             909     25.3348E-03     9.34195E-03     23.5495E-03     327.965E-03    -163.695E-03    -164.270E-03    -163.149E-03     327.204E-03    -164.056E-03     38.5731E-03     355.093E-03     104.697E+06     54.3424E+06     12.7207E+06    -62.3267E+06    -62.3101E+06     12.7041E+06     54.3424E+06    -567.550E+03
             910     24.9821E-03     8.49289E-03     23.4942E-03     327.592E-03    -163.387E-03    -164.205E-03    -162.913E-03     326.958E-03    -164.044E-03     35.2343E-03     351.148E-03     98.5517E+06     37.6000E+06    -35.4088E+06    -73.5747E+06    -73.5447E+06    -35.4388E+06     37.6000E+06    -974.203E+03
             911     24.6592E-03     7.64302E-03     23.4448E-03     327.141E-03    -163.034E-03    -164.107E-03    -162.545E-03     326.603E-03    -164.058E-03     32.3889E-03     347.662E-03     102.327E+06     20.6923E+06    -72.7239E+06    -87.9585E+06    -85.5949E+06    -75.0875E+06     20.6923E+06    -396.344E+03
             912     24.3697E-03     6.79226E-03     23.4040E-03     327.132E-03    -163.044E-03    -164.088E-03    -162.614E-03     326.702E-03    -164.088E-03     28.8640E-03     344.768E-03     107.518E+06     2.60038E+06    -97.6821E+06    -110.565E+06    -97.8497E+06    -110.398E+06     2.60038E+06     119.346E+03
             913     24.1093E-03     5.94368E-03     23.3651E-03     327.343E-03    -163.251E-03    -164.092E-03    -162.938E-03     327.031E-03    -164.092E-03     24.5713E-03     342.103E-03     113.139E+06    -18.3893E+06    -110.118E+06    -144.083E+06    -110.143E+06    -144.059E+06    -18.3893E+06    -321.577E+03
             914     23.8820E-03     5.09511E-03     23.3321E-03     327.322E-03    -163.239E-03    -164.083E-03    -163.028E-03     327.112E-03    -164.083E-03     20.1963E-03     339.149E-03     122.976E+06    -42.1587E+06    -123.419E+06    -183.204E+06    -123.435E+06    -183.187E+06    -42.1587E+06    -941.321E+03
             915     23.6912E-03     4.24479E-03     23.3078E-03     327.211E-03    -163.125E-03    -164.087E-03    -162.990E-03     327.077E-03    -164.087E-03     16.0603E-03     336.069E-03     132.162E+06    -67.9379E+06    -137.279E+06    -220.028E+06    -137.288E+06    -220.019E+06    -67.9379E+06    -277.835E+03
             916     23.5351E-03     3.39581E-03     23.2888E-03     327.416E-03    -163.331E-03    -164.086E-03    -163.258E-03     327.343E-03    -164.086E-03     11.7230E-03     333.486E-03     138.323E+06    -97.7166E+06    -151.109E+06    -254.453E+06    -151.111E+06    -254.451E+06    -97.7166E+06     202.370E+03
             917     23.4153E-03     2.54726E-03     23.2764E-03     327.695E-03    -163.634E-03    -164.061E-03    -163.600E-03     327.661E-03    -164.061E-03     8.07718E-03     331.316E-03     148.019E+06    -128.227E+06    -163.722E+06    -290.458E+06    -163.724E+06    -290.457E+06    -128.227E+06    -263.223E+03
             918     23.3316E-03     1.69685E-03     23.2698E-03     327.792E-03    -163.683E-03    -164.109E-03    -163.742E-03     327.777E-03    -164.034E-03     5.02868E-03     329.526E-03     159.078E+06    -156.168E+06    -174.493E+06    -323.434E+06    -174.495E+06    -323.433E+06    -156.168E+06    -347.488E+03
             919     23.2804E-03     848.040E-06     23.2650E-03     327.968E-03    -163.601E-03    -164.367E-03    -163.994E-03     327.963E-03    -163.969E-03     2.21086E-03     328.537E-03     169.321E+06    -176.190E+06    -181.926E+06    -348.258E+06    -181.954E+06    -348.229E+06    -176.190E+06    -310.047E+03
             920     26.8171E-03     14.4323E-03     22.6024E-03     335.519E-03    -164.684E-03    -170.834E-03    -168.513E-03     333.198E-03    -164.684E-03     67.3039E-03     403.250E-03     140.297E+06     133.153E+06     131.041E+06    -8.18112E+06    -8.17858E+06     131.038E+06     133.153E+06    -537.371E+03
             921     26.2811E-03     13.5885E-03     22.4956E-03     334.506E-03    -164.312E-03    -170.195E-03    -167.927E-03     332.238E-03    -164.312E-03     66.2303E-03     400.378E-03     130.227E+06     115.341E+06     112.157E+06    -16.4258E+06    -16.4225E+06     115.092E+06     112.402E+06    -293.205E+03
             922     25.7907E-03     12.7418E-03     22.4233E-03     331.916E-03    -163.965E-03    -167.951E-03    -166.565E-03     330.530E-03    -163.965E-03     52.5560E-03     382.842E-03     123.670E+06     102.170E+06     94.5326E+06    -25.1294E+06    -25.1257E+06     102.166E+06     94.5326E+06     160.901E+03
             923     25.3164E-03     11.8945E-03     22.3482E-03     330.216E-03    -163.676E-03    -166.541E-03    -165.364E-03     329.039E-03    -163.676E-03     48.1087E-03     374.066E-03     122.697E+06     96.2975E+06     81.3932E+06    -33.0744E+06    -33.0720E+06     96.2950E+06     81.3932E+06     126.401E+03
             924     24.8693E-03     11.0476E-03     22.2807E-03     328.555E-03    -163.486E-03    -165.069E-03    -164.183E-03     327.669E-03    -163.486E-03     41.7172E-03     364.831E-03     127.770E+06     93.0201E+06     77.6061E+06    -41.6627E+06      -41.66E+06     93.0174E+06     77.6061E+06    -261.646E+03
             925     24.4479E-03     10.1973E-03     22.2197E-03     327.589E-03    -163.370E-03    -164.219E-03    -163.492E-03     326.862E-03    -163.370E-03     37.6484E-03     358.217E-03     122.385E+06     77.1681E+06     62.0617E+06    -51.9539E+06    -51.9420E+06     67.2582E+06     71.9597E+06    -566.277E+03
             926     24.0514E-03     9.34839E-03     22.1602E-03     326.911E-03    -163.158E-03    -163.753E-03    -163.037E-03     326.306E-03    -163.270E-03     34.2368E-03     352.992E-03     105.686E+06     55.1067E+06     13.9339E+06    -62.4462E+06    -62.4330E+06     13.9208E+06     55.1067E+06    -390.140E+03
             927     23.6860E-03     8.49976E-03     22.1084E-03     325.947E-03    -162.624E-03    -163.324E-03    -162.236E-03     325.448E-03    -163.212E-03     31.0626E-03     348.495E-03     98.7721E+06     37.4619E+06    -35.4351E+06    -73.9979E+06    -73.9792E+06    -35.4537E+06     37.4619E+06    -185.349E+03
             928     23.3500E-03     7.64835E-03     22.0618E-03     325.539E-03    -162.344E-03    -163.195E-03    -161.942E-03     325.137E-03    -163.195E-03     27.8117E-03     345.077E-03     102.042E+06     20.1005E+06    -72.8284E+06    -88.4260E+06    -85.8815E+06    -75.3729E+06     20.1005E+06    -530.253E+03
             929     23.0420E-03     6.79910E-03     22.0161E-03     325.696E-03    -162.521E-03    -163.174E-03    -162.214E-03     325.388E-03    -163.174E-03     24.3341E-03     342.449E-03     107.336E+06     2.98212E+06    -96.3809E+06    -110.453E+06    -96.7527E+06    -110.081E+06     2.98212E+06    -749.650E+03
             930     22.7703E-03     5.94980E-03     21.9792E-03     325.418E-03    -162.278E-03    -163.140E-03    -162.045E-03     325.185E-03    -163.140E-03     21.1793E-03     339.445E-03     113.031E+06    -17.4009E+06    -109.053E+06    -143.126E+06    -109.078E+06    -143.101E+06    -17.4009E+06    -239.481E+03
             931     22.5317E-03     5.09874E-03     21.9472E-03     325.151E-03    -162.010E-03    -163.141E-03    -161.845E-03     324.986E-03    -163.141E-03     17.7597E-03     336.406E-03     122.706E+06    -42.0254E+06    -123.147E+06    -182.631E+06    -123.166E+06    -182.612E+06    -42.0254E+06    -208.112E+03
             932     22.3308E-03     4.24897E-03     21.9228E-03     325.291E-03    -162.124E-03    -163.167E-03    -162.026E-03     325.192E-03    -163.167E-03     13.6161E-03     333.742E-03     132.444E+06    -68.7292E+06    -137.286E+06    -221.102E+06    -137.304E+06    -221.084E+06    -68.7292E+06    -697.664E+03
             933     22.1649E-03     3.39854E-03     21.9028E-03     325.422E-03    -162.224E-03    -163.198E-03    -162.174E-03     325.371E-03    -163.198E-03     9.57136E-03     331.187E-03     138.760E+06    -97.2861E+06    -150.501E+06    -254.472E+06    -150.513E+06    -254.460E+06    -97.2861E+06    -161.583E+03
             934     22.0394E-03     2.54761E-03     21.8916E-03     325.814E-03    -162.585E-03    -163.229E-03    -162.564E-03     325.792E-03    -163.229E-03     6.11725E-03     329.279E-03     147.571E+06    -128.148E+06    -163.358E+06    -289.826E+06    -163.359E+06    -289.825E+06    -128.148E+06     116.514E+03
             935     21.9481E-03     1.69939E-03     21.8822E-03     326.276E-03    -163.011E-03    -163.265E-03    -163.078E-03     326.268E-03    -163.190E-03     3.42473E-03     327.945E-03     159.421E+06    -156.615E+06    -174.266E+06    -323.934E+06    -174.267E+06    -323.933E+06    -156.615E+06    -304.431E+03
             936     21.8962E-03     850.573E-06     21.8797E-03     326.203E-03    -162.894E-03    -163.309E-03    -163.290E-03     326.201E-03    -162.911E-03     1.80907E-03     326.758E-03     170.610E+06    -174.795E+06    -179.863E+06    -347.840E+06    -179.539E+06    -347.822E+06    -175.138E+06    -1.10104E+06
             937     25.6496E-03     14.4343E-03     21.2026E-03     337.325E-03    -164.588E-03    -172.737E-03    -170.488E-03     335.076E-03    -164.588E-03     66.6986E-03     404.986E-03     141.007E+06     133.364E+06     131.276E+06    -8.66592E+06    -8.66066E+06     131.330E+06     133.305E+06    -348.165E+03
             938     25.0973E-03     13.5907E-03     21.0990E-03     336.417E-03    -164.073E-03    -172.344E-03    -170.211E-03     334.284E-03    -164.073E-03     64.4467E-03     402.146E-03     131.030E+06     115.081E+06     112.100E+06    -17.3899E+06    -17.3848E+06     115.046E+06     112.129E+06    -12.1368E+03
             939     24.5914E-03     12.7472E-03     21.0297E-03     333.885E-03    -163.548E-03    -170.337E-03    -169.064E-03     332.611E-03    -163.548E-03     50.5949E-03     384.673E-03     124.064E+06     102.367E+06     94.4980E+06    -25.4297E+06    -25.4276E+06     102.365E+06     94.4980E+06    -48.4649E+03
             940     24.1004E-03     11.9031E-03     20.9558E-03     331.708E-03    -163.058E-03    -168.650E-03    -167.609E-03     330.667E-03    -163.058E-03     45.3688E-03     375.227E-03     123.410E+06     96.7839E+06     81.6871E+06    -33.3984E+06    -33.3973E+06     96.7827E+06     81.6871E+06    -135.821E+03
             941     23.6379E-03     11.0554E-03     20.8933E-03     329.391E-03    -162.660E-03    -166.731E-03    -165.985E-03     328.645E-03    -162.660E-03     38.3010E-03     365.136E-03     128.246E+06     93.6754E+06     77.7050E+06    -41.7376E+06    -41.7341E+06     93.6719E+06     77.7050E+06    -342.756E+03
             942     23.1986E-03     10.2092E-03     20.8314E-03     327.419E-03    -162.351E-03    -165.067E-03    -164.502E-03     326.853E-03    -162.351E-03     33.2008E-03     357.259E-03     122.046E+06     77.8956E+06     62.5112E+06    -51.0326E+06    -51.0211E+06     68.3490E+06     72.0463E+06    -705.970E+03
             943     22.7874E-03     9.36053E-03     20.7761E-03     325.551E-03    -162.000E-03    -163.551E-03    -163.018E-03     325.130E-03    -162.112E-03     28.5072E-03     350.750E-03     105.241E+06     54.9793E+06     12.4048E+06    -61.7799E+06    -61.7695E+06     12.3944E+06     54.9793E+06    -313.938E+03
             944     22.4037E-03     8.50882E-03     20.7250E-03     324.458E-03    -161.793E-03    -162.665E-03    -162.202E-03     324.137E-03    -161.935E-03     24.7262E-03     345.981E-03     98.5422E+06     39.2327E+06    -34.0195E+06    -72.2462E+06    -72.2419E+06    -34.0238E+06     39.2327E+06     263.127E+03
             945     22.0505E-03     7.66042E-03     20.6771E-03     323.684E-03    -161.632E-03    -162.052E-03    -161.650E-03     323.430E-03    -161.780E-03     21.9591E-03     342.074E-03     101.453E+06     21.6911E+06    -68.9587E+06    -87.0835E+06    -83.6637E+06    -72.3784E+06     21.6911E+06    -764.858E+03
             946     21.7286E-03     6.80955E-03     20.6340E-03     322.755E-03    -161.080E-03    -161.676E-03    -160.881E-03     322.557E-03    -161.676E-03     19.3745E-03     338.427E-03     107.076E+06     1.79905E+06    -97.0796E+06    -111.638E+06    -97.3714E+06    -111.346E+06     1.79905E+06    -1.14762E+06
             947     21.4410E-03     5.95730E-03     20.5968E-03     322.325E-03    -160.701E-03    -161.624E-03    -160.561E-03     322.185E-03    -161.624E-03     16.0371E-03     335.420E-03     113.162E+06    -18.3336E+06    -110.627E+06    -144.011E+06    -110.654E+06    -143.984E+06    -18.3336E+06    -263.222E+03
             948     21.1906E-03     5.10633E-03     20.5661E-03     322.210E-03    -160.610E-03    -161.599E-03    -160.519E-03     322.119E-03    -161.599E-03     12.7471E-03     332.702E-03     122.344E+06    -41.6414E+06    -123.191E+06    -181.763E+06    -123.209E+06    -181.744E+06    -41.6414E+06     196.413E+03
             949     20.9751E-03     4.25488E-03     20.5390E-03     322.154E-03    -160.560E-03    -161.594E-03    -160.508E-03     322.102E-03    -161.594E-03     9.53796E-03     330.043E-03     132.111E+06    -68.5737E+06    -136.920E+06    -220.508E+06    -136.936E+06    -220.492E+06    -68.5737E+06    -6.80067E+03
             950     20.8029E-03     3.40378E-03     20.5226E-03     322.363E-03    -160.770E-03    -161.593E-03    -160.747E-03     322.340E-03    -161.593E-03     6.34976E-03     327.777E-03     139.010E+06    -97.7904E+06    -151.053E+06    -255.293E+06    -151.072E+06    -255.275E+06    -97.7904E+06    -378.005E+03
             951     20.6656E-03     2.55332E-03     20.5073E-03     322.570E-03    -160.980E-03    -161.590E-03    -160.971E-03     322.561E-03    -161.590E-03     3.74222E-03     325.806E-03     146.666E+06    -128.366E+06    -163.532E+06    -289.066E+06    -163.536E+06    -289.062E+06    -128.366E+06    -155.026E+03
             952     20.5713E-03     1.70128E-03     20.5008E-03     322.827E-03    -161.206E-03    -161.621E-03    -161.203E-03     322.824E-03    -161.621E-03     2.13946E-03     324.389E-03     158.904E+06    -156.311E+06    -173.796E+06    -323.063E+06    -173.798E+06    -323.062E+06    -156.311E+06    -251.843E+03
             953     20.5127E-03     849.787E-06     20.4951E-03     323.213E-03    -161.427E-03    -161.786E-03    -161.425E-03     323.211E-03    -161.786E-03     901.684E-06     323.741E-03     170.901E+06    -175.823E+06    -181.357E+06    -349.378E+06    -181.016E+06    -349.376E+06    -176.165E+06    -215.623E+03
             954     24.5039E-03     14.4356E-03     19.8004E-03     339.121E-03    -164.476E-03    -174.645E-03    -172.455E-03     336.931E-03    -164.476E-03     66.2782E-03     406.584E-03     140.700E+06     133.419E+06     131.187E+06    -8.37500E+06    -8.37166E+06     131.242E+06     133.360E+06     67.1555E+03
             955     23.9362E-03     13.5945E-03     19.7010E-03     338.391E-03    -163.818E-03    -174.573E-03    -172.561E-03     336.379E-03    -163.818E-03     62.8165E-03     404.022E-03     130.729E+06     115.442E+06     112.335E+06    -16.7873E+06    -16.7837E+06     115.345E+06     112.429E+06     237.376E+03
             956     23.4091E-03     12.7528E-03     19.6304E-03     336.162E-03    -163.103E-03    -173.059E-03    -171.916E-03     335.018E-03    -163.103E-03     48.1369E-03     386.960E-03     124.393E+06     103.315E+06     95.5397E+06    -24.7716E+06    -24.7677E+06     103.311E+06     95.5397E+06    -218.407E+03
             957     22.9032E-03     11.9099E-03     19.5630E-03     333.854E-03    -162.368E-03    -171.486E-03    -170.606E-03     332.974E-03    -162.368E-03     41.8231E-03     377.229E-03     123.781E+06     97.5233E+06     82.5358E+06    -32.9814E+06    -32.9776E+06     97.5194E+06     82.5358E+06    -557.739E+03
             958     22.4228E-03     11.0675E-03     19.5010E-03     330.916E-03    -161.693E-03    -169.223E-03    -168.631E-03     330.324E-03    -161.693E-03     34.1835E-03     366.360E-03     128.533E+06     93.9823E+06     77.6061E+06    -41.8919E+06    -41.8859E+06     93.9763E+06     77.6061E+06    -887.435E+03
             959     21.9671E-03     10.2215E-03     19.4441E-03     327.890E-03    -161.113E-03    -166.777E-03    -166.359E-03     327.472E-03    -161.113E-03     28.4955E-03     357.346E-03     122.490E+06     78.0096E+06     62.0987E+06    -51.5838E+06    -51.5796E+06     68.3044E+06     71.7997E+06    -472.665E+03
             960     21.5391E-03     9.37357E-03     19.3925E-03     325.417E-03    -160.601E-03    -164.817E-03    -164.534E-03     325.135E-03    -160.601E-03     23.2381E-03     349.984E-03     105.344E+06     54.8282E+06     12.9005E+06    -62.1234E+06    -62.1188E+06     12.8959E+06     54.8282E+06    -155.934E+03
             961     21.1387E-03     8.52678E-03     19.3426E-03     323.204E-03    -160.155E-03    -163.049E-03    -162.859E-03     323.014E-03    -160.155E-03     19.0003E-03     343.806E-03     98.5578E+06     38.5558E+06    -33.0611E+06    -73.3237E+06    -73.2839E+06    -33.1009E+06     38.5558E+06    -760.915E+03
             962     20.7674E-03     7.67510E-03     19.2971E-03     321.171E-03    -159.738E-03    -161.433E-03    -161.254E-03     321.039E-03    -159.785E-03     15.4379E-03     338.539E-03     101.719E+06     21.6344E+06    -68.5822E+06    -87.5930E+06    -84.5021E+06    -71.6731E+06     21.6344E+06    -181.939E+03
             963     20.4297E-03     6.82327E-03     19.2565E-03     319.592E-03    -159.243E-03    -160.349E-03    -160.006E-03     319.505E-03    -159.500E-03     12.0000E-03     334.160E-03     106.889E+06     2.09797E+06    -96.4255E+06    -111.153E+06    -96.6858E+06    -110.893E+06     2.09797E+06     212.461E+03
             964     20.1255E-03     5.97161E-03     19.2191E-03     318.436E-03    -158.871E-03    -159.565E-03    -159.095E-03     318.385E-03    -159.290E-03     8.98176E-03     330.474E-03     112.501E+06    -18.5614E+06    -109.644E+06    -143.772E+06    -109.661E+06    -143.755E+06    -18.5614E+06    -731.741E+03
             965     19.8591E-03     5.11924E-03     19.1880E-03     317.705E-03    -158.543E-03    -159.162E-03    -158.517E-03     317.678E-03    -159.162E-03     6.37635E-03     327.310E-03     122.809E+06    -41.6223E+06    -123.305E+06    -182.348E+06    -123.323E+06    -182.330E+06    -41.6223E+06    -261.963E+03
             966     19.6336E-03     4.26560E-03     19.1646E-03     317.319E-03    -158.229E-03    -159.090E-03    -158.215E-03     317.305E-03    -159.090E-03     4.18916E-03     324.505E-03     131.851E+06    -67.9901E+06    -137.316E+06    -219.734E+06    -137.323E+06    -219.727E+06    -67.9901E+06     724.649E+03
             967     19.4450E-03     3.41213E-03     19.1433E-03     317.288E-03    -158.230E-03    -159.058E-03    -158.224E-03     317.281E-03    -159.058E-03     2.24201E-03     322.207E-03     138.649E+06    -97.1300E+06    -150.458E+06    -254.167E+06    -150.466E+06    -254.159E+06    -97.1300E+06     115.195E+03
             968     19.3028E-03     2.55867E-03     19.1324E-03     317.474E-03    -158.418E-03    -159.056E-03    -158.415E-03     317.471E-03    -159.056E-03     911.796E-06     320.409E-03     147.695E+06    -127.395E+06    -163.082E+06    -289.374E+06    -163.086E+06    -289.370E+06    -127.395E+06    -371.476E+03
             969     19.1986E-03     1.70574E-03     19.1227E-03     317.759E-03    -158.676E-03    -159.083E-03    -158.675E-03     317.758E-03    -159.083E-03    -62.9189E-06     319.176E-03     159.397E+06    -155.204E+06    -173.549E+06    -322.767E+06    -173.555E+06    -322.762E+06    -155.204E+06     256.989E+03
             970     19.1379E-03     853.221E-06     19.1189E-03     318.112E-03    -158.867E-03    -159.245E-03    -158.866E-03     318.112E-03    -159.245E-03    -663.605E-06     318.584E-03     170.685E+06    -175.830E+06    -181.575E+06    -349.272E+06    -181.055E+06    -349.264E+06    -176.358E+06     14.9431E+03
             971     23.3874E-03     14.4376E-03     18.3991E-03     341.253E-03    -164.361E-03    -176.892E-03    -174.732E-03     339.093E-03    -164.361E-03     66.0949E-03     408.427E-03     140.708E+06     133.395E+06     131.011E+06    -8.48069E+06    -8.48031E+06     131.165E+06     133.241E+06     111.704E+03
             972     22.7961E-03     13.5976E-03     18.2966E-03     340.800E-03    -163.540E-03    -177.260E-03    -175.317E-03     338.857E-03    -163.540E-03     61.8075E-03     406.429E-03     131.239E+06     116.143E+06     113.068E+06    -16.5850E+06    -16.5840E+06     116.049E+06     113.162E+06     119.737E+03
             973     22.2518E-03     12.7591E-03     18.2304E-03     338.740E-03    -162.605E-03    -176.135E-03    -175.124E-03     337.729E-03    -162.605E-03     45.5011E-03     389.582E-03     125.004E+06     104.047E+06     96.0829E+06    -24.7313E+06    -24.7285E+06     104.044E+06     96.0829E+06    -143.829E+03
             974     21.7261E-03     11.9202E-03     18.1640E-03     336.282E-03    -161.598E-03    -174.684E-03    -173.954E-03     335.552E-03    -161.598E-03     38.2891E-03     379.718E-03     124.177E+06     97.9654E+06     82.8126E+06    -33.0199E+06    -33.0161E+06     97.9617E+06     82.8126E+06    -640.702E+03
             975     21.2276E-03     11.0790E-03     18.1071E-03     332.832E-03    -160.612E-03    -172.220E-03    -171.776E-03     332.388E-03    -160.612E-03     29.6078E-03     368.297E-03     128.651E+06     94.2639E+06     78.0752E+06    -41.6582E+06    -41.6547E+06     94.2604E+06     78.0752E+06    -602.991E+03
             976     20.7562E-03     10.2359E-03     18.0567E-03     329.186E-03    -159.685E-03    -169.501E-03    -169.229E-03     328.914E-03    -159.685E-03     22.9362E-03     358.425E-03     122.374E+06     77.6079E+06     61.9826E+06    -51.7604E+06    -51.7580E+06     68.1528E+06     71.4353E+06    -332.883E+03
             977     20.3083E-03     9.39182E-03     18.0061E-03     325.820E-03    -158.802E-03    -167.018E-03    -166.856E-03     325.658E-03    -158.802E-03     17.3968E-03     349.916E-03     105.290E+06     54.5168E+06     14.1277E+06    -62.4541E+06    -62.4490E+06     14.1226E+06     54.5168E+06    -309.023E+03
             978     19.8911E-03     8.54340E-03     17.9629E-03     322.524E-03    -157.977E-03    -164.547E-03    -164.456E-03     322.433E-03    -157.977E-03     12.3839E-03     342.478E-03     98.5736E+06     38.4145E+06    -31.6290E+06    -73.7345E+06    -73.6922E+06    -31.6713E+06     38.4145E+06    -597.848E+03
             979     19.5027E-03     7.69513E-03     17.9204E-03     319.280E-03    -157.229E-03    -162.051E-03    -162.007E-03     319.236E-03    -157.229E-03     7.95454E-03     335.838E-03     101.930E+06     21.2745E+06    -68.3500E+06    -88.6546E+06    -84.9316E+06    -72.0730E+06     21.2745E+06    -655.372E+03
             980     19.1473E-03     6.84486E-03     17.8821E-03     316.329E-03    -156.589E-03    -159.740E-03    -159.724E-03     316.313E-03    -156.589E-03     4.36255E-03     329.978E-03     106.849E+06     2.76064E+06    -95.4393E+06    -110.713E+06    -95.9973E+06    -110.155E+06     2.76064E+06    -223.572E+03
             981     18.8270E-03     5.99159E-03     17.8482E-03     313.749E-03    -155.969E-03    -157.780E-03    -157.661E-03     313.739E-03    -156.078E-03     1.53085E-03     324.799E-03     112.298E+06    -18.0480E+06    -109.225E+06    -142.906E+06    -109.260E+06    -142.870E+06    -18.0480E+06     277.625E+03
             982     18.5446E-03     5.13585E-03     17.8192E-03     311.923E-03    -155.524E-03    -156.399E-03    -156.195E-03     311.912E-03    -155.717E-03    -871.224E-06     320.587E-03     122.902E+06    -41.7383E+06    -123.031E+06    -182.562E+06    -123.061E+06    -182.532E+06    -41.7383E+06     259.314E+03
             983     18.3021E-03     4.28110E-03     17.7943E-03     310.794E-03    -155.161E-03    -155.634E-03    -155.314E-03     310.783E-03    -155.469E-03    -2.40624E-03     317.196E-03     131.443E+06    -67.5814E+06    -136.489E+06    -218.903E+06    -136.495E+06    -218.898E+06    -67.5814E+06    -119.938E+03
             984     18.1040E-03     3.42488E-03     17.7771E-03     310.086E-03    -154.753E-03    -155.333E-03    -154.751E-03     310.074E-03    -155.323E-03    -3.49520E-03     314.424E-03     138.178E+06    -96.1625E+06    -150.066E+06    -252.817E+06    -150.070E+06    -252.813E+06    -96.1625E+06    -18.2990E+03
             985     17.9473E-03     2.56807E-03     17.7626E-03     309.995E-03    -154.735E-03    -155.259E-03    -154.724E-03     309.984E-03    -155.259E-03    -3.71549E-03     312.577E-03     147.961E+06    -127.117E+06    -163.147E+06    -289.424E+06    -163.150E+06    -289.421E+06    -127.117E+06     238.227E+03
             986     17.8369E-03     1.71228E-03     17.7545E-03     310.205E-03    -154.991E-03    -155.214E-03    -154.985E-03     310.199E-03    -155.214E-03    -2.94279E-03     311.441E-03     159.226E+06    -155.374E+06    -173.875E+06    -322.847E+06    -173.885E+06    -322.837E+06    -155.374E+06     140.931E+03
             987     17.7701E-03     855.792E-06     17.7495E-03     310.280E-03    -154.948E-03    -155.332E-03    -155.271E-03     310.278E-03    -155.007E-03    -1.85815E-03     310.686E-03     170.570E+06    -174.964E+06    -181.255E+06    -348.546E+06    -180.747E+06    -348.525E+06    -175.492E+06     294.140E+03
             988     22.2975E-03     14.4385E-03     16.9914E-03     343.799E-03    -164.234E-03    -179.565E-03    -177.438E-03     341.671E-03    -164.234E-03     66.0557E-03     410.673E-03     140.841E+06     133.584E+06     131.037E+06    -8.50203E+06    -8.50013E+06     131.189E+06     133.430E+06     302.939E+03
             989     21.6869E-03     13.6023E-03     16.8908E-03     343.529E-03    -163.222E-03    -180.307E-03    -178.471E-03     341.693E-03    -163.222E-03     60.2258E-03     409.116E-03     131.616E+06     116.625E+06     113.533E+06    -16.4878E+06    -16.4873E+06     116.555E+06     113.603E+06    -162.516E+03
             990     21.1191E-03     12.7659E-03     16.8241E-03     341.185E-03    -162.055E-03    -179.130E-03    -178.231E-03     340.286E-03    -162.055E-03     43.1103E-03     392.012E-03     124.927E+06     104.403E+06     96.3954E+06    -24.3176E+06    -24.3166E+06     104.402E+06     96.3954E+06    -305.280E+03
             991     20.5740E-03     11.9294E-03     16.7623E-03     338.657E-03    -160.779E-03    -177.878E-03    -177.264E-03     338.043E-03    -160.779E-03     35.1648E-03     382.370E-03     123.871E+06     98.2696E+06     83.1164E+06    -32.4088E+06    -32.4059E+06     98.2667E+06     83.1164E+06    -99.1928E+03
             992     20.0566E-03     11.0918E-03     16.7104E-03     335.323E-03    -159.457E-03    -175.866E-03    -175.535E-03     334.992E-03    -159.457E-03     25.5969E-03     371.065E-03     128.620E+06     94.3784E+06     77.9696E+06    -41.6062E+06    -41.6028E+06     94.3750E+06     77.9696E+06    -135.180E+03
             993     19.5653E-03     10.2531E-03     16.6636E-03     331.450E-03    -158.114E-03    -173.337E-03    -173.171E-03     331.284E-03    -158.114E-03     17.7907E-03     360.753E-03     122.168E+06     77.8590E+06     62.1243E+06    -51.3542E+06    -51.3519E+06     68.5168E+06     71.4642E+06    -462.436E+03
             994     19.1010E-03     9.41003E-03     16.6222E-03     327.030E-03    -156.759E-03    -170.271E-03    -170.200E-03     326.959E-03    -156.759E-03     10.8977E-03     350.988E-03     104.977E+06     55.0991E+06     15.4374E+06    -61.5097E+06    -61.5084E+06     15.4361E+06     55.0991E+06    -218.411E+03
             995     18.6633E-03     8.56669E-03     16.5810E-03     322.433E-03    -155.436E-03    -166.997E-03    -166.975E-03     322.412E-03    -155.436E-03     4.73645E-03     342.018E-03     97.9353E+06     39.3493E+06    -29.7626E+06    -72.0476E+06    -71.9876E+06    -29.8226E+06     39.3493E+06    -455.133E+03
             996     18.2582E-03     7.71946E-03     16.5460E-03     317.713E-03    -154.182E-03    -163.531E-03    -163.521E-03     317.703E-03    -154.182E-03    -102.709E-06     333.691E-03     101.374E+06     21.7727E+06    -67.4472E+06    -87.5572E+06    -83.6109E+06    -71.3935E+06     21.7727E+06    -818.894E+03
             997     17.8843E-03     6.86812E-03     16.5129E-03     313.061E-03    -153.051E-03    -160.010E-03    -159.986E-03     313.037E-03    -153.051E-03    -3.90145E-03     326.005E-03     107.374E+06     2.58699E+06    -96.1576E+06    -111.447E+06    -96.6578E+06    -110.946E+06     2.58699E+06    -211.425E+03
             998     17.5468E-03     6.01499E-03     16.4837E-03     308.981E-03    -152.067E-03    -156.913E-03    -156.872E-03     308.939E-03    -152.067E-03    -7.05998E-03     319.242E-03     112.449E+06    -17.5666E+06    -109.294E+06    -142.441E+06    -109.322E+06    -142.413E+06    -17.5666E+06     684.261E+03
             999     17.2480E-03     5.16058E-03     16.4579E-03     305.512E-03    -151.260E-03    -154.252E-03    -154.196E-03     305.456E-03    -151.260E-03    -9.20146E-03     313.374E-03     121.749E+06    -41.1030E+06    -122.438E+06    -180.539E+06    -122.461E+06    -180.516E+06    -41.1030E+06     594.449E+03
            1000     16.9903E-03     4.30166E-03     16.4368E-03     302.774E-03    -150.637E-03    -152.138E-03    -152.070E-03     302.707E-03    -150.637E-03    -10.2706E-03     308.468E-03     130.524E+06    -67.6419E+06    -136.470E+06    -217.877E+06    -136.480E+06    -217.867E+06    -67.6419E+06     114.190E+03
            1001     16.7761E-03     3.44244E-03     16.4191E-03     300.985E-03    -150.110E-03    -150.874E-03    -150.742E-03     300.918E-03    -150.176E-03    -10.2665E-03     304.752E-03     137.412E+06    -97.0370E+06    -150.494E+06    -252.802E+06    -150.503E+06    -252.793E+06    -97.0370E+06     230.485E+03
            1002     16.6094E-03     2.58277E-03     16.4074E-03     299.841E-03    -149.650E-03    -150.191E-03    -149.930E-03     299.790E-03    -149.860E-03    -9.08583E-03     302.036E-03     146.984E+06    -127.319E+06    -162.926E+06    -288.493E+06    -162.930E+06    -288.490E+06    -127.319E+06     200.854E+03
            1003     16.4880E-03     1.72114E-03     16.3979E-03     299.244E-03    -149.460E-03    -149.784E-03    -149.523E-03     299.213E-03    -149.690E-03    -6.93997E-03     300.287E-03     159.058E+06    -155.389E+06    -173.356E+06    -322.461E+06    -173.363E+06    -322.454E+06    -155.389E+06    -90.4902E+03
            1004     16.4160E-03     860.942E-06     16.3934E-03     299.197E-03    -149.380E-03    -149.817E-03    -149.720E-03     299.185E-03    -149.466E-03    -3.94412E-03     299.540E-03     170.687E+06    -175.525E+06    -181.081E+06    -348.871E+06    -181.108E+06    -348.845E+06    -175.525E+06    -270.313E+03
            1005     21.2430E-03     14.4411E-03     15.5794E-03     346.183E-03    -164.077E-03    -182.107E-03    -179.995E-03     344.071E-03    -164.077E-03     66.1414E-03     412.817E-03     140.957E+06     133.772E+06     131.177E+06    -8.44998E+06    -8.44658E+06     131.177E+06     133.768E+06     279.952E+03
            1006     20.6101E-03     13.6074E-03     15.4796E-03     345.813E-03    -162.893E-03    -182.921E-03    -181.104E-03     343.997E-03    -162.893E-03     60.1702E-03     411.750E-03     131.809E+06     116.794E+06     113.696E+06    -16.5094E+06    -16.5081E+06     116.723E+06     113.766E+06    -290.737E+03
            1007     20.0207E-03     12.7738E-03     15.4161E-03     343.725E-03    -161.513E-03    -182.212E-03    -181.352E-03     342.865E-03    -161.513E-03     42.3759E-03     394.842E-03     125.073E+06     104.465E+06     96.3642E+06    -24.4470E+06    -24.4452E+06     104.463E+06     96.3642E+06    -97.6668E+03
            1008     19.4520E-03     11.9394E-03     15.3568E-03     341.396E-03    -159.956E-03    -181.440E-03    -180.901E-03     340.857E-03    -159.956E-03     33.0033E-03     385.591E-03     123.679E+06     97.8597E+06     82.5812E+06    -32.6679E+06    -32.6644E+06     97.8562E+06     82.5812E+06     136.308E+03
            1009     18.9123E-03     11.1051E-03     15.3086E-03     338.242E-03    -158.274E-03    -179.968E-03    -179.718E-03     337.993E-03    -158.274E-03     22.1673E-03     374.504E-03     128.429E+06     94.5911E+06     77.9287E+06    -41.2984E+06    -41.2933E+06     94.5860E+06     77.9287E+06     151.284E+03
            1010     18.4001E-03     10.2686E-03     15.2683E-03     334.198E-03    -156.479E-03    -177.718E-03    -177.624E-03     334.103E-03    -156.479E-03     12.9709E-03     364.058E-03     122.929E+06     78.2730E+06     62.8979E+06    -51.5749E+06    -51.5689E+06     69.3520E+06     71.8129E+06     186.408E+03
            1011     17.9163E-03     9.43253E-03     15.2323E-03     329.135E-03    -154.580E-03    -174.555E-03    -174.534E-03     329.114E-03    -154.580E-03     5.11682E-03     353.499E-03     105.818E+06     55.0996E+06     17.7218E+06    -62.2863E+06    -62.2712E+06     17.7067E+06     55.0996E+06    -261.832E+03
            1012     17.4608E-03     8.59063E-03     15.2013E-03     323.151E-03    -152.657E-03    -170.494E-03    -170.479E-03     323.135E-03    -152.657E-03    -1.97077E-03     342.869E-03     98.1041E+06     38.6651E+06    -28.5067E+06    -73.0444E+06    -72.9732E+06    -28.5778E+06     38.6651E+06    -900.887E+03
            1013     17.0352E-03     7.74533E-03     15.1726E-03     316.803E-03    -150.776E-03    -166.027E-03    -165.975E-03     316.751E-03    -150.776E-03    -8.49982E-03     332.668E-03     101.298E+06     21.3439E+06    -68.1944E+06    -87.5245E+06    -84.2828E+06    -71.4361E+06     21.3439E+06    -149.299E+03
            1014     16.6448E-03     6.89769E-03     15.1483E-03     310.412E-03    -148.993E-03    -161.418E-03    -161.314E-03     310.308E-03    -148.993E-03    -13.2274E-03     323.025E-03     107.336E+06     3.07275E+06    -95.8246E+06    -110.698E+06    -96.0374E+06    -110.485E+06     3.07275E+06     609.189E+03
            1015     16.2886E-03     6.04486E-03     15.1254E-03     304.241E-03    -147.352E-03    -156.888E-03    -156.729E-03     304.081E-03    -147.352E-03    -16.4493E-03     314.063E-03     112.289E+06    -17.3664E+06    -109.122E+06    -142.141E+06    -109.150E+06    -142.113E+06    -17.3664E+06     652.229E+03
            1016     15.9721E-03     5.18719E-03     15.1063E-03     298.717E-03    -145.904E-03    -152.813E-03    -152.609E-03     298.512E-03    -145.904E-03    -18.4434E-03     306.072E-03     120.123E+06    -41.2586E+06    -123.128E+06    -178.680E+06    -123.144E+06    -178.665E+06    -41.2586E+06     798.709E+03
            1017     15.6985E-03     4.32842E-03     15.0900E-03     293.891E-03    -144.677E-03    -149.213E-03    -148.998E-03     293.675E-03    -144.677E-03    -18.9053E-03     299.070E-03     129.294E+06    -67.7755E+06    -136.958E+06    -216.567E+06    -136.969E+06    -216.556E+06    -67.7755E+06     607.954E+03
            1018     15.4698E-03     3.46544E-03     15.0767E-03     289.976E-03    -143.696E-03    -146.279E-03    -146.089E-03     289.785E-03    -143.696E-03    -17.7130E-03     293.313E-03     136.746E+06    -97.1866E+06    -150.306E+06    -252.170E+06    -150.316E+06    -252.160E+06    -97.1866E+06     546.748E+03
            1019     15.2889E-03     2.60020E-03     15.0661E-03     287.228E-03    -142.959E-03    -144.269E-03    -144.130E-03     287.089E-03    -142.959E-03    -14.9668E-03     289.123E-03     145.287E+06    -127.972E+06    -163.355E+06    -287.382E+06    -163.361E+06    -287.376E+06    -127.972E+06     399.223E+03
            1020     15.1593E-03     1.73508E-03     15.0596E-03     285.388E-03    -142.395E-03    -142.993E-03    -142.854E-03     285.313E-03    -142.459E-03    -10.9363E-03     286.271E-03     157.429E+06    -156.400E+06    -174.460E+06    -321.861E+06    -174.464E+06    -321.857E+06    -156.400E+06     375.941E+03
            1021     15.0798E-03     866.931E-06     15.0549E-03     284.453E-03    -141.887E-03    -142.566E-03    -142.476E-03     284.426E-03    -141.950E-03    -6.21091E-03     284.745E-03     169.471E+06    -177.074E+06    -182.104E+06    -348.949E+06    -182.036E+06    -348.932E+06    -177.158E+06    -133.004E+03
            1022     20.2338E-03     14.4446E-03     14.1690E-03     347.959E-03    -163.931E-03    -184.028E-03    -181.860E-03     345.791E-03    -163.931E-03     66.7782E-03     414.635E-03     140.876E+06     134.168E+06     131.289E+06    -8.10846E+06    -8.10525E+06     131.290E+06     134.164E+06     311.342E+03
            1023     19.5717E-03     13.6099E-03     14.0650E-03     347.604E-03    -162.621E-03    -184.982E-03    -183.050E-03     345.672E-03    -162.621E-03     61.8754E-03     414.443E-03     131.621E+06     116.571E+06     113.684E+06    -16.4487E+06    -16.4466E+06     116.439E+06     113.814E+06     56.1583E+03
            1024     18.9575E-03     12.7785E-03     14.0035E-03     346.401E-03    -161.057E-03    -185.345E-03    -184.480E-03     345.537E-03    -161.057E-03     42.7434E-03     398.322E-03     124.972E+06     104.160E+06     96.3627E+06    -24.5111E+06    -24.5101E+06     104.159E+06     96.3627E+06     129.842E+03
            1025     18.3650E-03     11.9487E-03     13.9464E-03     344.758E-03    -159.214E-03    -185.545E-03    -185.008E-03     344.222E-03    -159.214E-03     33.0187E-03     390.047E-03     124.050E+06     97.9633E+06     82.6896E+06    -32.9346E+06    -32.9280E+06     97.9568E+06     82.6896E+06     383.263E+03
            1026     17.8017E-03     11.1178E-03     13.9030E-03     341.664E-03    -157.145E-03    -184.518E-03    -184.309E-03     341.454E-03    -157.145E-03     20.1812E-03     379.122E-03     128.624E+06     94.5469E+06     77.8563E+06    -41.5513E+06    -41.5435E+06     94.5391E+06     77.8563E+06     635.684E+03
            1027     17.2662E-03     10.2870E-03     13.8671E-03     337.118E-03    -154.882E-03    -182.236E-03    -182.180E-03     337.063E-03    -154.882E-03     9.70997E-03     368.227E-03     122.687E+06     78.4268E+06     64.3563E+06    -50.6678E+06    -50.6603E+06       70.81E+06     71.9656E+06     345.939E+03
            1028     16.7600E-03     9.45133E-03     13.8408E-03     331.658E-03    -152.435E-03    -179.222E-03    -179.208E-03     331.643E-03    -152.435E-03     427.991E-06     357.242E-03     105.663E+06     55.8784E+06     19.4059E+06    -60.8209E+06    -60.7890E+06     19.3740E+06     55.8784E+06     16.9586E+03
            1029     16.2832E-03     8.61520E-03     13.8174E-03     324.782E-03    -149.865E-03    -174.917E-03    -174.870E-03     324.735E-03    -149.865E-03    -8.24827E-03     345.562E-03     97.8846E+06     39.1848E+06    -28.1438E+06    -72.3180E+06    -72.2735E+06    -28.1883E+06     39.1848E+06     509.865E+03
            1030     15.8400E-03     7.77480E-03     13.8006E-03     316.878E-03    -147.256E-03    -169.622E-03    -169.493E-03     316.748E-03    -147.256E-03    -15.3504E-03     333.547E-03     100.597E+06     20.9358E+06    -68.3363E+06    -86.7894E+06    -84.6638E+06    -70.4619E+06     20.9358E+06     644.367E+03
            1031     15.4285E-03     6.92755E-03     13.7858E-03     308.667E-03    -144.689E-03    -163.978E-03    -163.734E-03     308.423E-03    -144.689E-03    -20.9650E-03     321.801E-03     106.661E+06     2.11228E+06    -97.0162E+06    -110.325E+06    -97.3042E+06    -110.037E+06     2.11228E+06     823.850E+03
            1032     15.0549E-03     6.07623E-03     13.7743E-03     300.248E-03    -142.225E-03    -158.023E-03    -157.664E-03     299.888E-03    -142.225E-03    -25.1945E-03     310.308E-03     111.752E+06    -18.0198E+06    -110.266E+06    -141.861E+06    -110.339E+06    -141.788E+06    -18.0198E+06     1.46706E+06
            1033     14.7206E-03     5.22053E-03     13.7638E-03     292.034E-03    -139.951E-03    -152.083E-03    -151.644E-03     291.595E-03    -139.951E-03    -27.5678E-03     299.438E-03     118.161E+06    -41.8426E+06    -123.939E+06    -176.804E+06    -123.982E+06    -176.761E+06    -41.8426E+06     1.33838E+06
            1034     14.4298E-03     4.35808E-03     13.7559E-03     284.547E-03    -137.942E-03    -146.606E-03    -146.153E-03     284.095E-03    -137.942E-03    -27.5645E-03     289.670E-03     127.303E+06    -68.3482E+06    -137.958E+06    -214.865E+06    -137.975E+06    -214.848E+06    -68.3482E+06     804.795E+03
            1035     14.1865E-03     3.49221E-03     13.7499E-03     278.049E-03    -136.241E-03    -141.807E-03    -141.412E-03     277.653E-03    -136.241E-03    -25.3508E-03     281.287E-03     134.924E+06    -98.0445E+06    -152.478E+06    -251.373E+06    -152.497E+06    -251.354E+06    -98.0445E+06     1.03887E+06
            1036     13.9925E-03     2.62249E-03     13.7445E-03     272.824E-03    -134.898E-03    -137.926E-03    -137.639E-03     272.537E-03    -134.898E-03    -21.2376E-03     274.625E-03     141.835E+06    -130.011E+06    -165.904E+06    -285.978E+06    -165.921E+06    -285.961E+06    -130.011E+06     1.38851E+06
            1037     13.8517E-03     1.74881E-03     13.7409E-03     269.268E-03    -133.922E-03    -135.345E-03    -135.186E-03     269.108E-03    -133.922E-03    -15.4068E-03     270.091E-03     154.066E+06    -158.542E+06    -176.837E+06    -320.757E+06    -176.844E+06    -320.751E+06    -158.542E+06     734.629E+03
            1038     13.7666E-03     875.722E-06     13.7387E-03     266.979E-03    -132.846E-03    -134.133E-03    -134.077E-03     266.923E-03    -132.846E-03    -8.61840E-03     267.242E-03     166.535E+06    -178.534E+06    -184.463E+06    -347.895E+06    -184.383E+06    -347.891E+06    -178.618E+06     678.107E+03
            1039     19.2715E-03     14.4446E-03     12.7571E-03     349.410E-03    -163.844E-03    -185.566E-03    -183.355E-03     347.199E-03    -163.844E-03     67.1537E-03     416.330E-03     140.630E+06     134.423E+06     131.224E+06    -7.76254E+06    -7.76115E+06     131.223E+06     134.423E+06     282.319E+03
            1040     18.5819E-03     13.6133E-03     12.6477E-03     349.556E-03    -162.422E-03    -187.134E-03    -185.072E-03     347.495E-03    -162.422E-03     63.9997E-03     417.571E-03     131.393E+06     116.768E+06     113.968E+06    -15.9878E+06    -15.9847E+06     116.457E+06     114.276E+06     484.086E+03
            1041     17.9408E-03     12.7837E-03     12.5878E-03     348.715E-03    -160.691E-03    -188.024E-03    -187.143E-03     347.833E-03    -160.691E-03     43.3407E-03     401.684E-03     125.145E+06     104.144E+06     96.6976E+06    -24.5385E+06    -24.5343E+06     104.139E+06     96.6976E+06     496.665E+03
            1042     17.3188E-03     11.9547E-03     12.5310E-03     347.446E-03    -158.615E-03    -188.831E-03    -188.283E-03     346.898E-03    -158.615E-03     33.6237E-03     394.548E-03     124.127E+06     98.0016E+06     83.7847E+06    -32.5628E+06    -32.5555E+06     97.9943E+06     83.7847E+06     619.080E+03
            1043     16.7286E-03     11.1291E-03     12.4896E-03     344.714E-03    -156.224E-03    -188.489E-03    -188.267E-03     344.492E-03    -156.224E-03     20.8813E-03     384.401E-03     128.075E+06     94.3078E+06     78.2830E+06    -40.9968E+06    -40.9914E+06     94.3023E+06     78.2830E+06     576.262E+03
            1044     16.1698E-03     10.2999E-03     12.4649E-03     340.588E-03    -153.526E-03    -187.062E-03    -187.007E-03     340.533E-03    -153.526E-03     9.39357E-03     374.176E-03     123.173E+06     78.8041E+06     65.4080E+06    -50.5167E+06    -50.5005E+06     72.1536E+06     72.0423E+06     487.129E+03
            1045     15.6369E-03     9.47164E-03     12.4419E-03     334.515E-03    -150.539E-03    -183.976E-03    -183.959E-03     334.498E-03    -150.539E-03    -1.70736E-03     362.713E-03     106.241E+06     55.6198E+06     19.9475E+06    -61.2307E+06    -61.1943E+06     19.9110E+06     55.6198E+06     1.05790E+06
            1046     15.1393E-03     8.63834E-03     12.4330E-03     326.765E-03    -147.345E-03    -179.420E-03    -179.345E-03     326.689E-03    -147.345E-03    -11.5547E-03     350.027E-03     97.4835E+06     38.7840E+06    -28.5299E+06    -72.2815E+06    -72.1637E+06    -28.6478E+06     38.7840E+06     1.91993E+06
            1047     14.6714E-03     7.79934E-03     12.4266E-03     317.937E-03    -144.007E-03    -173.930E-03    -173.721E-03     317.727E-03    -144.007E-03    -19.7417E-03     336.872E-03     100.070E+06     21.0650E+06    -67.3355E+06    -86.3732E+06    -84.3525E+06    -69.3561E+06     21.0650E+06     2.54409E+06
            1048     14.2411E-03     6.95750E-03     12.4258E-03     307.989E-03    -140.609E-03    -167.380E-03    -166.992E-03     307.601E-03    -140.609E-03    -26.8196E-03     323.064E-03     105.818E+06     1.40202E+06    -96.7239E+06    -110.343E+06    -97.7914E+06    -109.276E+06     1.40202E+06     2.34245E+06
            1049     13.8467E-03     6.10856E-03     12.4265E-03     297.135E-03    -137.264E-03    -159.871E-03    -159.324E-03     296.588E-03    -137.264E-03    -31.4622E-03     308.734E-03     110.593E+06    -18.6707E+06    -110.673E+06    -141.010E+06    -110.852E+06    -140.832E+06    -18.6707E+06     2.18454E+06
            1050     13.4946E-03     5.25206E-03     12.4307E-03     286.260E-03    -134.096E-03    -152.164E-03    -151.512E-03     285.607E-03    -134.096E-03    -33.6965E-03     294.792E-03     116.419E+06    -42.0244E+06    -124.612E+06    -174.754E+06    -124.738E+06    -174.628E+06    -42.0244E+06     2.28689E+06
            1051     13.1870E-03     4.38969E-03     12.4349E-03     275.905E-03    -131.201E-03    -144.704E-03    -144.023E-03     275.224E-03    -131.201E-03    -33.7335E-03     281.775E-03     124.861E+06    -69.1376E+06    -139.800E+06    -212.910E+06    -139.889E+06    -212.821E+06    -69.1376E+06     2.31413E+06
            1052     12.9274E-03     3.52041E-03     12.4389E-03     266.493E-03    -128.664E-03    -137.829E-03    -137.226E-03     265.890E-03    -128.664E-03    -31.0806E-03     270.180E-03     132.921E+06    -99.0200E+06    -154.649E+06    -250.373E+06    -154.700E+06    -250.321E+06    -99.0200E+06     2.02627E+06
            1053     12.7213E-03     2.64553E-03     12.4432E-03     258.582E-03    -126.555E-03    -132.027E-03    -131.588E-03     258.143E-03    -126.555E-03    -25.9481E-03     260.638E-03     139.351E+06    -130.526E+06    -168.034E+06    -284.466E+06    -168.063E+06    -284.438E+06    -130.526E+06     1.78885E+06
            1054     12.5699E-03     1.76703E-03     12.4451E-03     252.500E-03    -124.941E-03    -127.558E-03    -127.311E-03     252.253E-03    -124.941E-03    -18.9539E-03     253.434E-03     148.960E+06    -160.218E+06    -179.541E+06    -317.665E+06    -179.559E+06    -317.647E+06    -160.218E+06     1.24838E+06
            1055     12.4776E-03     883.900E-06     12.4463E-03     248.532E-03    -123.700E-03    -124.832E-03    -124.686E-03     248.442E-03    -123.756E-03    -10.7917E-03     248.832E-03     162.813E+06    -181.563E+06    -187.697E+06    -347.299E+06    -187.380E+06    -347.295E+06    -181.884E+06     413.270E+03
            1056     18.3639E-03     14.4456E-03     11.3383E-03     350.453E-03    -163.790E-03    -186.662E-03    -184.402E-03     348.193E-03    -163.790E-03     67.3519E-03     417.819E-03     140.484E+06     134.179E+06     130.613E+06    -8.03953E+06    -8.03872E+06     130.612E+06     134.179E+06     103.782E+03
            1057     17.6493E-03     13.6148E-03     11.2310E-03     351.244E-03    -162.282E-03    -188.962E-03    -186.753E-03     349.034E-03    -162.282E-03     66.4061E-03     421.059E-03     131.202E+06     116.669E+06     113.798E+06    -15.9354E+06    -15.9334E+06     116.080E+06     114.384E+06     219.725E+03
            1058     16.9761E-03     12.7865E-03     11.1665E-03     350.103E-03    -160.435E-03    -189.668E-03    -188.705E-03     349.140E-03    -160.435E-03     45.4218E-03     404.821E-03     124.416E+06     104.437E+06     97.2888E+06    -23.3777E+06    -23.3736E+06     104.433E+06     97.2888E+06     582.071E+03
            1059     16.3275E-03     11.9621E-03     11.1129E-03     348.920E-03    -158.220E-03    -190.700E-03    -190.059E-03     348.280E-03    -158.220E-03     36.5117E-03     398.829E-03     122.982E+06     97.9876E+06     83.7360E+06    -31.4320E+06    -31.4244E+06     97.9800E+06     83.7360E+06     722.885E+03
            1060     15.7048E-03     11.1335E-03     11.0763E-03     346.950E-03    -155.626E-03    -191.324E-03    -191.049E-03     346.675E-03    -155.626E-03     23.2700E-03     389.974E-03     127.020E+06     94.0539E+06     77.9937E+06    -40.1971E+06    -40.1883E+06     94.0451E+06     77.9937E+06     814.083E+03
            1061     15.1139E-03     10.3108E-03     11.0507E-03     342.987E-03    -152.631E-03    -190.356E-03    -190.282E-03     342.913E-03    -152.631E-03     11.4249E-03     380.657E-03     121.570E+06     78.3033E+06     64.5003E+06    -49.5661E+06    -49.5387E+06     71.1455E+06     71.6308E+06     1.50993E+06
            1062     14.5569E-03     9.48409E-03     11.0433E-03     337.116E-03    -149.248E-03    -187.868E-03    -187.850E-03     337.098E-03    -149.248E-03     877.709E-06     369.929E-03     104.989E+06     55.1181E+06     19.0251E+06    -60.6442E+06    -60.4165E+06     18.7973E+06     55.1181E+06     3.03441E+06
            1063     14.0298E-03     8.65393E-03     11.0429E-03     329.447E-03    -145.525E-03    -183.923E-03    -183.854E-03     329.379E-03    -145.525E-03    -10.2428E-03     357.380E-03     97.6516E+06     38.0790E+06    -28.3606E+06    -73.4956E+06    -72.9833E+06    -28.8729E+06     38.0790E+06     4.16266E+06
            1064     13.5391E-03     7.82176E-03     11.0512E-03     319.399E-03    -141.548E-03    -177.851E-03    -177.641E-03     319.190E-03    -141.548E-03    -19.8065E-03     342.872E-03     100.093E+06     20.6604E+06    -65.6843E+06    -87.9488E+06     -85.454E+06    -68.1791E+06     20.6604E+06     4.39457E+06
            1065     13.0830E-03     6.98137E-03     11.0646E-03     307.521E-03    -137.476E-03    -170.045E-03    -169.659E-03     307.135E-03    -137.476E-03    -26.8286E-03     326.695E-03     105.041E+06     1.76178E+06    -94.9996E+06    -109.790E+06    -97.7472E+06    -107.042E+06     1.76178E+06     3.88398E+06
            1066     12.6685E-03     6.13402E-03     11.0844E-03     294.872E-03    -133.435E-03    -161.437E-03    -160.897E-03     294.332E-03    -133.435E-03    -31.2263E-03     309.983E-03     110.257E+06    -18.6398E+06    -110.785E+06    -140.415E+06    -111.332E+06    -139.868E+06    -18.6398E+06     3.70224E+06
            1067     12.2947E-03     5.27888E-03     11.1037E-03     282.036E-03    -129.529E-03    -152.507E-03    -151.853E-03     281.382E-03    -129.529E-03    -33.5742E-03     293.300E-03     115.878E+06    -42.1932E+06    -125.760E+06    -174.138E+06    -126.159E+06    -173.739E+06    -42.1932E+06     4.15327E+06
            1068     11.9684E-03     4.41569E-03     11.1241E-03     269.307E-03    -125.880E-03    -143.427E-03    -142.737E-03     268.618E-03    -125.880E-03    -33.6572E-03     277.101E-03     122.924E+06    -68.9532E+06    -140.870E+06    -210.471E+06    -141.120E+06    -210.221E+06    -68.9532E+06     3.86938E+06
            1069     11.6938E-03     3.54429E-03     11.1437E-03     257.423E-03    -122.626E-03    -134.797E-03    -134.190E-03     256.817E-03    -122.626E-03    -30.7325E-03     262.377E-03     130.910E+06    -98.2791E+06    -155.648E+06    -247.744E+06    -155.758E+06    -247.634E+06    -98.2791E+06     2.97489E+06
            1070     11.4726E-03     2.66585E-03     11.1586E-03     247.152E-03    -119.875E-03    -127.277E-03    -126.836E-03     246.711E-03    -119.875E-03    -25.4985E-03     249.955E-03     137.490E+06    -129.784E+06    -170.054E+06    -282.591E+06    -170.108E+06    -282.537E+06    -129.784E+06     2.18832E+06
            1071     11.3122E-03     1.78100E-03     11.1712E-03     239.009E-03    -117.744E-03    -121.265E-03    -121.021E-03     238.765E-03    -117.744E-03    -18.3228E-03     240.300E-03     144.090E+06    -160.801E+06    -182.140E+06    -314.081E+06    -182.167E+06    -314.053E+06    -160.801E+06     1.76190E+06
            1072     11.2144E-03     892.005E-06     11.1789E-03     233.732E-03    -116.225E-03    -117.508E-03    -117.362E-03     233.642E-03    -116.280E-03    -10.6656E-03     234.147E-03     159.030E+06    -184.318E+06    -190.804E+06    -346.416E+06    -190.498E+06    -346.401E+06    -184.639E+06     489.716E+03
            1073     17.5280E-03     14.4463E-03     9.92662E-03     350.794E-03    -163.756E-03    -187.038E-03    -184.654E-03     348.410E-03    -163.756E-03     68.1527E-03     418.934E-03     140.021E+06     134.437E+06     130.316E+06    -7.58726E+06    -7.58539E+06     130.314E+06     134.437E+06    -163.410E+03
            1074     16.7792E-03     13.6157E-03     9.80576E-03     351.361E-03    -162.241E-03    -189.121E-03    -186.649E-03     348.890E-03    -162.241E-03     70.1544E-03     423.733E-03     130.211E+06     116.491E+06     113.321E+06    -15.2699E+06    -15.2692E+06     115.536E+06     114.276E+06    -53.1836E+03
            1075     16.0812E-03     12.7895E-03     9.74848E-03     350.393E-03    -160.389E-03    -190.003E-03    -188.866E-03     349.256E-03    -160.389E-03     49.4330E-03     407.927E-03     123.740E+06     103.829E+06     96.9266E+06    -23.1978E+06    -23.1937E+06     103.825E+06     96.9266E+06     505.422E+03
            1076     15.3944E-03     11.9591E-03     9.69378E-03     349.887E-03    -158.134E-03    -191.753E-03    -190.947E-03     349.081E-03    -158.134E-03     41.0470E-03     404.017E-03     122.812E+06     97.6555E+06     83.8453E+06    -31.4104E+06    -31.3995E+06     97.6446E+06     83.8453E+06     1.03925E+06
            1077     14.7408E-03     11.1392E-03     9.65457E-03     347.343E-03    -155.477E-03    -191.866E-03    -191.487E-03     346.964E-03    -155.477E-03     27.7193E-03     395.443E-03     126.496E+06     93.4413E+06     78.0049E+06    -40.0252E+06    -39.9958E+06     93.4119E+06     78.0049E+06     1.79029E+06
            1078     14.1178E-03     10.3127E-03     9.64159E-03     343.461E-03    -152.414E-03    -191.047E-03    -190.892E-03     343.306E-03    -152.414E-03     17.1027E-03     387.164E-03     120.482E+06     76.4685E+06     62.0539E+06    -50.5446E+06    -50.4105E+06     68.2335E+06     70.1548E+06     3.27993E+06
            1079     13.5230E-03     9.48659E-03     9.63724E-03     338.342E-03    -148.903E-03    -189.439E-03    -189.397E-03     338.300E-03    -148.903E-03     6.67384E-03     377.854E-03     104.982E+06     54.1158E+06     16.9240E+06    -62.1217E+06    -61.6589E+06     16.4612E+06     54.1158E+06     5.24793E+06
            1080     12.9662E-03     8.66196E-03     9.64843E-03     330.210E-03    -144.991E-03    -185.219E-03    -185.189E-03     330.180E-03    -144.991E-03    -2.72220E-03     365.249E-03     98.1926E+06     38.7920E+06    -27.3358E+06    -73.5126E+06    -72.5570E+06    -28.2913E+06     38.7920E+06     6.33867E+06
            1081     12.4449E-03     7.82973E-03     9.67317E-03     319.433E-03    -140.814E-03    -178.619E-03    -178.531E-03     319.345E-03    -140.814E-03    -9.77871E-03     349.988E-03     100.102E+06     21.7780E+06    -63.4478E+06    -87.4769E+06    -84.4223E+06    -66.5024E+06     21.7780E+06     6.08990E+06
            1082     11.9619E-03     6.99143E-03     9.70601E-03     307.047E-03    -136.532E-03    -170.515E-03    -170.341E-03     306.873E-03    -136.532E-03    -15.4414E-03     332.839E-03     105.818E+06     3.33398E+06    -93.1969E+06    -109.690E+06    -97.5593E+06    -105.327E+06     3.33398E+06     5.73071E+06
            1083     11.5189E-03     6.14469E-03     9.74313E-03     293.951E-03    -132.241E-03    -161.710E-03    -161.454E-03     293.695E-03    -132.241E-03    -19.0597E-03     314.811E-03     111.720E+06    -17.1399E+06    -110.460E+06    -140.590E+06    -111.796E+06    -139.254E+06    -17.1399E+06     5.72701E+06
            1084     11.1204E-03     5.29040E-03     9.78133E-03     280.345E-03    -128.053E-03    -152.291E-03    -151.964E-03     280.017E-03    -128.053E-03    -21.7419E-03     295.959E-03     116.956E+06    -40.1671E+06    -125.652E+06    -173.185E+06    -126.290E+06    -172.546E+06    -40.1671E+06     5.22323E+06
            1085     10.7727E-03     4.42650E-03     9.82127E-03     266.669E-03    -124.131E-03    -142.538E-03    -142.182E-03     266.313E-03    -124.131E-03    -22.4015E-03     277.584E-03     123.248E+06    -65.8476E+06    -140.512E+06    -207.720E+06    -140.814E+06    -207.418E+06    -65.8476E+06     4.28128E+06
            1086     10.4776E-03     3.55434E-03     9.85630E-03     254.025E-03    -120.621E-03    -133.403E-03    -133.091E-03     253.712E-03    -120.621E-03    -20.4800E-03     261.121E-03     131.352E+06    -95.0899E+06    -155.701E+06    -245.451E+06    -155.843E+06    -245.309E+06    -95.0899E+06     3.41125E+06
            1087     10.2426E-03     2.67399E-03     9.88738E-03     242.961E-03    -117.651E-03    -125.310E-03    -125.079E-03     242.730E-03    -117.651E-03    -17.2040E-03     246.995E-03     136.759E+06    -127.555E+06    -170.189E+06    -280.197E+06    -170.258E+06    -280.128E+06    -127.555E+06     2.54601E+06
            1088     10.0701E-03     1.78654E-03     9.91040E-03     234.315E-03    -115.380E-03    -118.935E-03    -118.806E-03     234.186E-03    -115.380E-03    -12.4754E-03     236.188E-03     142.156E+06    -160.250E+06    -182.197E+06    -311.771E+06    -182.236E+06    -311.732E+06    -160.250E+06     1.24607E+06
            1089     9.96544E-03     894.578E-06     9.92520E-03     228.870E-03    -113.797E-03    -115.073E-03    -115.027E-03     228.824E-03    -113.797E-03    -6.88491E-03     229.474E-03     157.997E+06    -183.022E+06    -189.643E+06    -344.156E+06    -189.135E+06    -344.136E+06    -183.549E+06     169.379E+03
            1090     16.7651E-03     14.4463E-03     8.50731E-03     349.628E-03    -163.780E-03    -185.847E-03    -183.252E-03     347.032E-03    -163.780E-03     69.0045E-03     419.250E-03     140.007E+06     134.641E+06     129.795E+06    -7.71837E+06    -7.71683E+06     129.793E+06     134.641E+06    -409.130E+03
            1091     15.9919E-03     13.6151E-03     8.38874E-03     350.366E-03    -162.359E-03    -188.006E-03    -185.147E-03     347.506E-03    -162.359E-03     75.1263E-03     426.374E-03     130.582E+06     116.290E+06     112.657E+06    -16.0676E+06    -16.0655E+06     114.768E+06     114.177E+06     178.014E+03
            1092     15.2564E-03     12.7821E-03     8.32909E-03     349.871E-03    -160.594E-03    -189.277E-03    -187.957E-03     348.551E-03    -160.594E-03     53.2690E-03     411.586E-03     124.305E+06     102.891E+06     96.6259E+06    -24.4134E+06    -24.4075E+06     102.885E+06     96.6259E+06     759.970E+03
            1093     14.5414E-03     11.9616E-03     8.26871E-03     348.208E-03    -158.455E-03    -189.753E-03    -188.711E-03     347.166E-03    -158.455E-03     46.6928E-03     408.489E-03     122.333E+06     96.1123E+06     83.2161E+06    -32.0870E+06    -32.0605E+06     96.0859E+06     83.2161E+06     1.49977E+06
            1094     13.8502E-03     11.1312E-03     8.24163E-03     345.397E-03    -155.995E-03    -189.402E-03    -188.784E-03     344.779E-03    -155.995E-03     35.6295E-03     400.571E-03     126.091E+06     90.9242E+06     77.2308E+06    -41.3891E+06    -41.2526E+06     90.7877E+06     77.2308E+06     3.63310E+06
            1095     13.1870E-03     10.3056E-03     8.22749E-03     341.513E-03    -153.182E-03    -188.332E-03    -187.964E-03     341.146E-03    -153.182E-03     26.9577E-03     393.191E-03     121.299E+06     75.3218E+06     61.2513E+06    -52.3011E+06    -51.9765E+06     65.8761E+06     70.3724E+06     5.85833E+06
            1096     12.5559E-03     9.48190E-03     8.23073E-03     334.853E-03    -150.038E-03    -184.814E-03    -184.561E-03     334.599E-03    -150.038E-03     20.1277E-03     383.020E-03     106.290E+06     54.7370E+06     15.8455E+06    -63.2822E+06    -62.7647E+06     15.3280E+06     54.7370E+06     6.18851E+06
            1097     11.9588E-03     8.64934E-03     8.25850E-03     326.390E-03    -146.673E-03    -179.716E-03    -179.502E-03     326.176E-03    -146.673E-03     16.0696E-03     370.071E-03     100.243E+06     40.2055E+06    -28.1000E+06    -74.3150E+06    -73.3630E+06    -29.0520E+06     40.2055E+06     6.26864E+06
            1098     11.3965E-03     7.81444E-03     8.29542E-03     317.023E-03    -143.131E-03    -173.892E-03    -173.689E-03     316.820E-03    -143.131E-03     13.0569E-03     355.397E-03     103.084E+06     24.9040E+06    -62.5255E+06    -88.0058E+06    -84.4262E+06    -66.1051E+06     24.9040E+06     6.88141E+06
            1099     10.8777E-03     6.97403E-03     8.34793E-03     306.929E-03    -139.445E-03    -167.483E-03    -167.253E-03     306.698E-03    -139.445E-03     11.2355E-03     339.688E-03     109.287E+06     7.54079E+06    -91.3347E+06    -109.746E+06    -96.7140E+06    -104.367E+06     7.54079E+06     6.63830E+06
            1100     10.3985E-03     6.12722E-03     8.40160E-03     295.931E-03    -135.666E-03    -160.264E-03    -160.049E-03     295.715E-03    -135.666E-03     8.57453E-03     322.571E-03     116.413E+06    -10.7998E+06    -107.923E+06    -139.495E+06    -109.249E+06    -138.169E+06    -10.7998E+06     5.55714E+06
            1101     9.96821E-03     5.27248E-03     8.45968E-03     283.763E-03    -131.937E-03    -151.826E-03    -151.655E-03     283.592E-03    -131.937E-03     4.43214E-03     303.829E-03     121.819E+06    -31.8335E+06    -121.405E+06    -170.308E+06    -121.874E+06    -169.840E+06    -31.8335E+06     4.39725E+06
            1102     9.59135E-03     4.41018E-03     8.51729E-03     271.883E-03    -128.432E-03    -143.451E-03    -143.301E-03     271.733E-03    -128.432E-03     2.22896E-03     286.261E-03     128.720E+06    -57.7517E+06    -135.677E+06    -205.831E+06    -135.867E+06    -205.640E+06    -57.7517E+06     3.05490E+06
            1103     9.27182E-03     3.53937E-03     8.56969E-03     260.999E-03    -125.258E-03    -135.740E-03    -135.637E-03     260.896E-03    -125.258E-03     150.469E-06     270.433E-03     137.018E+06    -88.2576E+06    -150.114E+06    -244.877E+06    -150.186E+06    -244.805E+06    -88.2576E+06     1.96987E+06
            1104     9.01575E-03     2.66166E-03     8.61390E-03     251.303E-03    -122.552E-03    -128.751E-03    -128.688E-03     251.240E-03    -122.552E-03    -1.22159E-03     256.709E-03     141.113E+06    -121.751E+06    -163.637E+06    -278.676E+06    -163.674E+06    -278.639E+06    -121.751E+06     1.37321E+06
            1105     8.82946E-03     1.77849E-03     8.64849E-03     243.823E-03    -120.487E-03    -123.336E-03    -123.301E-03     243.788E-03    -120.487E-03    -1.29404E-03     246.345E-03     147.174E+06    -154.950E+06    -175.373E+06    -310.926E+06    -175.421E+06    -310.878E+06    -154.950E+06     980.542E+03
            1106     8.71572E-03     890.046E-06     8.67015E-03     239.122E-03    -119.134E-03    -119.988E-03    -119.904E-03     239.111E-03    -119.207E-03    -778.873E-06     239.938E-03     161.725E+06    -178.580E+06    -184.240E+06    -343.009E+06    -183.741E+06    -342.981E+06    -179.108E+06     783.866E+03
            1107     16.0974E-03     14.4462E-03     7.10180E-03     348.489E-03    -163.893E-03    -184.595E-03    -181.865E-03     345.758E-03    -163.893E-03     69.8952E-03     420.384E-03     140.718E+06     135.077E+06     129.414E+06    -8.38169E+06    -8.38076E+06     129.413E+06     135.077E+06    -318.512E+03
            1108     15.2888E-03     13.6076E-03     6.96992E-03     348.644E-03    -162.588E-03    -186.056E-03    -183.002E-03     345.590E-03    -162.588E-03     77.2795E-03     429.576E-03     130.650E+06     115.899E+06     112.650E+06    -16.3409E+06    -16.3391E+06     113.867E+06     114.681E+06     201.784E+03
            1109     14.5303E-03     12.7839E-03     6.90656E-03     345.532E-03    -161.066E-03    -184.466E-03    -182.905E-03     343.971E-03    -161.066E-03     57.1724E-03     412.725E-03     123.127E+06     101.006E+06     95.8310E+06    -24.5996E+06    -24.5740E+06     100.980E+06     95.8310E+06     1.25059E+06
            1110     13.7747E-03     11.9461E-03     6.85802E-03     343.725E-03    -159.329E-03    -184.396E-03    -182.983E-03     342.312E-03    -159.329E-03     53.9936E-03     410.494E-03     121.720E+06     93.5122E+06     81.8161E+06    -33.5704E+06    -33.4758E+06     93.4176E+06     81.8161E+06     3.04978E+06
            1111     13.0459E-03     11.1176E-03     6.82594E-03     339.733E-03    -157.427E-03    -182.305E-03    -181.332E-03     338.760E-03    -157.427E-03     44.5880E-03     401.305E-03     126.595E+06     88.4028E+06     78.5864E+06    -42.6695E+06    -42.4734E+06     88.0572E+06     78.7359E+06     4.86734E+06
            1112     12.3424E-03     10.2879E-03     6.81855E-03     332.648E-03    -155.483E-03    -177.165E-03    -176.249E-03     331.731E-03    -155.483E-03     41.8273E-03     390.165E-03     121.933E+06     76.5327E+06     61.8667E+06    -51.5850E+06    -51.2527E+06     63.4620E+06     74.6051E+06     5.96036E+06
            1113     11.6634E-03     9.44798E-03     6.83888E-03     325.496E-03    -153.589E-03    -171.907E-03    -170.862E-03     324.450E-03    -153.589E-03     43.1987E-03     378.630E-03     108.914E+06     60.2864E+06     15.1384E+06    -61.8481E+06    -61.3065E+06     14.5968E+06     60.2864E+06     6.21377E+06
            1114     11.0162E-03     8.60872E-03     6.87356E-03     319.471E-03    -151.724E-03    -167.747E-03    -166.501E-03     318.225E-03    -151.724E-03     45.7441E-03     367.547E-03     105.462E+06     46.6283E+06    -29.1121E+06    -73.0051E+06    -72.2483E+06    -29.8689E+06     46.6283E+06      5.5942E+06
            1115     10.4049E-03     7.76455E-03     6.92627E-03     314.069E-03    -149.785E-03    -164.283E-03    -162.871E-03     312.656E-03    -149.785E-03     47.6191E-03     356.426E-03     109.391E+06     32.7029E+06    -64.4229E+06    -84.7331E+06    -82.7076E+06    -66.4485E+06     32.7029E+06     4.41103E+06
            1116     9.83314E-03     6.91667E-03     6.98931E-03     309.132E-03    -147.692E-03    -161.440E-03    -159.906E-03     307.598E-03    -147.692E-03     49.3793E-03     345.668E-03     116.385E+06     17.5253E+06    -89.2538E+06    -106.056E+06    -92.2888E+06    -103.021E+06     17.5253E+06     2.46733E+06
            1117     9.30485E-03     6.06800E-03     7.05405E-03     303.673E-03    -145.379E-03    -158.294E-03    -156.862E-03     302.241E-03    -145.379E-03     47.0068E-03     333.450E-03     124.209E+06    -105.693E+03    -101.418E+06    -138.129E+06    -101.996E+06    -137.550E+06    -105.693E+03     322.853E+03
            1118     8.83427E-03     5.21545E-03     7.13046E-03     296.891E-03    -142.895E-03    -153.997E-03    -152.886E-03     295.781E-03    -142.895E-03     40.5974E-03     319.319E-03     129.714E+06    -21.6899E+06    -112.229E+06    -169.824E+06    -112.546E+06    -169.507E+06    -21.6899E+06    -643.586E+03
            1119     8.41524E-03     4.35602E-03     7.20009E-03     289.482E-03    -140.404E-03    -149.078E-03    -148.267E-03     288.671E-03    -140.404E-03     34.2828E-03     305.875E-03     137.774E+06    -49.2951E+06    -123.590E+06    -207.315E+06    -123.748E+06    -207.157E+06    -49.2951E+06    -677.490E+03
            1120     8.06109E-03     3.49387E-03     7.26457E-03     282.361E-03    -138.048E-03    -144.313E-03    -143.798E-03     281.846E-03    -138.048E-03     26.5650E-03     293.256E-03     145.894E+06    -81.9769E+06    -136.008E+06    -246.572E+06    -136.018E+06    -246.562E+06    -81.9769E+06    -193.018E+03
            1121     7.77793E-03     2.62595E-03     7.32124E-03     275.851E-03    -135.947E-03    -139.904E-03    -139.625E-03     275.572E-03    -135.947E-03     18.9563E-03     282.220E-03     151.768E+06    -115.278E+06    -148.823E+06    -280.514E+06    -148.857E+06    -280.481E+06    -115.278E+06     937.410E+03
            1122     7.56890E-03     1.75269E-03     7.36317E-03     270.496E-03    -134.253E-03    -136.244E-03    -136.128E-03     270.380E-03    -134.253E-03     11.9679E-03     273.507E-03     160.863E+06    -144.071E+06    -160.876E+06    -312.461E+06    -160.973E+06    -312.364E+06    -144.071E+06     3.08780E+06
            1123     7.44214E-03     877.856E-06     7.39019E-03     266.728E-03    -132.973E-03    -133.755E-03    -133.648E-03     266.694E-03    -133.046E-03     6.06438E-03     267.746E-03     170.046E+06    -164.948E+06    -170.888E+06    -337.842E+06    -170.373E+06    -337.709E+06    -165.596E+06     4.06272E+06
            1124     15.5163E-03     14.4384E-03     5.68219E-03     345.690E-03    -164.120E-03    -181.570E-03    -178.495E-03     342.615E-03    -164.120E-03     70.8003E-03     422.138E-03     141.616E+06     135.550E+06     129.394E+06    -9.03259E+06    -9.03169E+06     129.393E+06     135.550E+06    -38.7881E+03
            1125     14.7034E-03     13.6139E-03     5.55449E-03     344.345E-03    -163.110E-03    -181.235E-03    -177.444E-03     340.555E-03    -163.110E-03     85.7099E-03     431.980E-03     131.397E+06     114.334E+06     112.027E+06    -18.1930E+06    -18.1749E+06     112.257E+06     114.087E+06     758.134E+03
            1126     13.9023E-03     12.7656E-03     5.50565E-03     340.628E-03    -162.023E-03    -178.605E-03    -176.565E-03     338.588E-03    -162.023E-03     64.5783E-03     412.220E-03     123.938E+06     98.7112E+06     96.1858E+06    -26.4333E+06    -26.3806E+06     98.4862E+06     96.3581E+06     2.26654E+06
            1127     13.1152E-03     11.9321E-03     5.44365E-03     334.725E-03    -159.911E-03    -174.814E-03    -171.907E-03     332.880E-03    -160.972E-03     60.6593E-03     403.221E-03     122.361E+06     92.1443E+06     85.1454E+06    -33.5121E+06    -33.4272E+06     91.9402E+06     85.2646E+06     2.70352E+06
            1128     12.3485E-03     11.0935E-03     5.42387E-03     325.756E-03    -156.209E-03    -169.547E-03    -163.663E-03     323.942E-03    -160.278E-03     58.1706E-03     386.485E-03     126.771E+06     89.4036E+06     80.9068E+06    -41.3207E+06    -41.1652E+06     85.5256E+06     84.6292E+06     3.77437E+06
            1129     11.5939E-03     10.2407E-03     5.43577E-03     318.907E-03    -153.068E-03    -165.839E-03    -156.615E-03     316.668E-03    -160.052E-03     63.4389E-03     372.854E-03     124.938E+06     82.1546E+06     61.1886E+06    -51.1955E+06    -50.9589E+06     60.9520E+06     82.1546E+06     4.95927E+06
            1130     10.8601E-03     9.38782E-03     5.45989E-03     315.149E-03    -151.230E-03    -163.919E-03    -152.336E-03     312.515E-03    -160.178E-03     68.6356E-03     362.932E-03     115.286E+06     69.5638E+06     14.7863E+06    -60.7320E+06    -60.3805E+06     14.4348E+06     69.5638E+06     3.32773E+06
            1131     10.1520E-03     8.52956E-03     5.50534E-03     313.993E-03    -150.956E-03    -163.036E-03    -150.430E-03     310.947E-03    -160.517E-03     74.0085E-03     356.390E-03     112.052E+06     57.1226E+06    -27.9183E+06    -69.0064E+06    -68.1692E+06    -28.7556E+06     57.1226E+06     162.689E+03
            1132     9.47539E-03     7.67234E-03     5.56042E-03     315.405E-03    -152.416E-03    -162.988E-03    -151.285E-03     312.129E-03    -160.844E-03     77.4896E-03     352.426E-03     114.650E+06     42.7403E+06    -58.9147E+06    -80.7948E+06    -74.7923E+06    -64.9172E+06     42.7403E+06    -3.98442E+06
            1133     8.84093E-03     6.81967E-03     5.62621E-03     317.372E-03    -154.022E-03    -163.350E-03    -153.072E-03     314.050E-03    -160.978E-03     78.6486E-03     349.509E-03     120.863E+06     24.8152E+06    -77.6038E+06    -106.631E+06    -80.7872E+06    -103.448E+06     24.8152E+06    -7.50899E+06
            1134     8.24838E-03     5.96629E-03     5.69554E-03     319.005E-03    -155.491E-03    -163.514E-03    -155.174E-03     315.979E-03    -160.805E-03     75.3733E-03     345.596E-03     126.658E+06     2.12059E+06    -86.0815E+06    -141.406E+06    -87.6747E+06    -139.813E+06     2.12059E+06    -8.56250E+06
            1135     7.71493E-03     5.11721E-03     5.77359E-03     320.063E-03    -156.811E-03    -163.252E-03    -157.360E-03     317.603E-03    -160.243E-03     68.2245E-03     340.624E-03     133.959E+06    -23.9858E+06    -95.6257E+06    -176.921E+06    -96.4496E+06    -176.097E+06    -23.9858E+06    -7.52200E+06
            1136     7.24427E-03     4.27091E-03     5.85140E-03     319.361E-03    -157.457E-03    -161.904E-03    -158.077E-03     317.426E-03    -159.349E-03     60.2408E-03     334.992E-03     146.518E+06    -51.9006E+06    -106.553E+06    -216.631E+06    -106.777E+06    -216.407E+06    -51.9006E+06    -3.74626E+06
            1137     6.83862E-03     3.41950E-03     5.92231E-03     317.527E-03    -157.351E-03    -160.176E-03    -157.917E-03     316.204E-03    -158.287E-03     49.4468E-03     328.212E-03     157.511E+06    -81.5739E+06    -118.388E+06    -253.620E+06    -118.486E+06    -253.523E+06    -81.5739E+06     1.20481E+06
            1138     6.51123E-03     2.56788E-03     5.98349E-03     315.537E-03    -156.873E-03    -158.665E-03    -157.618E-03     314.771E-03    -157.153E-03     37.2140E-03     321.932E-03     167.486E+06    -109.045E+06    -130.701E+06    -286.051E+06    -130.988E+06    -285.764E+06    -109.045E+06     5.49192E+06
            1139     6.27085E-03     1.71525E-03     6.03171E-03     313.009E-03    -156.032E-03    -156.977E-03    -156.627E-03     312.659E-03    -156.032E-03     24.5106E-03     316.145E-03     175.942E+06    -130.589E+06    -141.510E+06    -311.648E+06    -141.726E+06    -311.295E+06    -130.726E+06     7.39445E+06
            1140     6.12322E-03     857.998E-06     6.06281E-03     310.556E-03    -154.974E-03    -155.582E-03    -155.276E-03     310.447E-03    -155.171E-03     12.9715E-03     311.788E-03     179.691E+06    -143.987E+06    -148.212E+06    -325.707E+06    -147.659E+06    -325.476E+06    -144.772E+06     5.96044E+06
            1141     15.0671E-03     14.4448E-03     4.28551E-03     342.729E-03    -164.744E-03    -177.984E-03    -173.552E-03     338.410E-03    -164.858E-03     84.9588E-03     428.467E-03     142.238E+06     134.877E+06     128.345E+06    -10.4958E+06    -10.3998E+06     128.249E+06     134.877E+06     2.00945E+06
            1142     14.2017E-03     13.5806E-03     4.15378E-03     343.079E-03    -164.178E-03    -178.901E-03    -174.257E-03     338.434E-03    -164.178E-03     92.4225E-03     429.739E-03     133.189E+06     115.336E+06     112.444E+06    -19.2690E+06    -19.1553E+06     112.330E+06     115.336E+06     2.44483E+06
            1143     13.3932E-03     12.7531E-03     4.09084E-03     331.261E-03    -158.890E-03    -172.371E-03    -165.375E-03     329.043E-03    -163.668E-03     65.1300E-03     395.965E-03     126.125E+06     100.393E+06     99.1343E+06    -26.3493E+06    -26.3075E+06     99.0925E+06     100.393E+06     597.495E+03
            1144     12.5774E-03     11.9054E-03     4.05616E-03     317.846E-03    -150.866E-03    -166.981E-03    -151.271E-03     315.132E-03    -163.861E-03     70.5807E-03     374.419E-03     122.900E+06     90.5295E+06     86.3813E+06    -34.3486E+06    -34.2918E+06     90.2470E+06     86.6070E+06     984.150E+03
            1145     11.7571E-03     11.0351E-03     4.05665E-03     310.146E-03    -145.156E-03    -164.990E-03    -142.125E-03     307.116E-03    -164.990E-03     73.4669E-03     356.461E-03     127.114E+06     88.1481E+06     79.1856E+06    -43.1817E+06    -43.0696E+06     82.9960E+06     84.2256E+06     2.19657E+06
            1146     10.9511E-03     10.1675E-03     4.06787E-03     308.189E-03    -141.376E-03    -166.813E-03    -137.982E-03     304.795E-03    -166.813E-03     77.7000E-03     347.254E-03     124.936E+06     83.1295E+06     61.5766E+06    -50.6148E+06    -50.3993E+06     61.3610E+06     83.1295E+06     533.749E+03
            1147     10.1602E-03     9.29630E-03     4.09976E-03     309.976E-03    -140.915E-03    -169.061E-03    -137.207E-03     306.267E-03    -169.061E-03     81.4141E-03     343.513E-03     111.336E+06     68.5239E+06     18.8106E+06    -57.0993E+06    -56.0854E+06     17.7967E+06     68.5239E+06    -4.77339E+06
            1148     9.39093E-03     8.42780E-03     4.14269E-03     315.263E-03    -143.701E-03    -171.562E-03    -139.779E-03     311.341E-03    -171.562E-03     84.4667E-03     344.624E-03     102.992E+06     51.0803E+06    -19.4463E+06    -65.9897E+06    -60.3233E+06    -25.1127E+06     51.0803E+06    -11.6487E+06
            1149     8.64669E-03     7.56434E-03     4.18880E-03     322.752E-03    -148.654E-03    -174.098E-03    -144.750E-03     318.848E-03    -174.098E-03     85.3864E-03     348.338E-03     102.308E+06     30.1856E+06    -45.0048E+06    -84.7901E+06    -64.1861E+06    -65.6087E+06     30.1856E+06    -16.1328E+06
            1150     7.93844E-03     6.70578E-03     4.24869E-03     331.222E-03    -154.724E-03    -176.498E-03    -151.009E-03     327.507E-03    -176.498E-03     84.5180E-03     353.342E-03     109.277E+06     7.03282E+06    -62.6336E+06    -116.947E+06    -69.3685E+06    -110.212E+06     7.03282E+06    -16.4773E+06
            1151     7.27053E-03     5.85513E-03     4.31023E-03     339.273E-03    -160.633E-03    -178.640E-03    -157.350E-03     335.990E-03    -178.640E-03     80.4925E-03     357.745E-03     119.140E+06    -17.5359E+06    -74.1363E+06    -153.179E+06    -76.7592E+06    -150.556E+06    -17.5359E+06    -13.0369E+06
            1152     6.65491E-03     5.00903E-03     4.38150E-03     347.030E-03    -166.583E-03    -180.447E-03    -163.832E-03     344.279E-03    -180.447E-03     74.7954E-03     362.031E-03     134.217E+06    -42.3797E+06    -85.4661E+06    -192.069E+06    -86.2637E+06    -191.272E+06    -42.3797E+06    -7.01016E+06
            1153     6.09923E-03     4.16698E-03     4.45386E-03     354.427E-03    -172.632E-03    -181.795E-03    -170.380E-03     352.175E-03    -181.795E-03     68.4334E-03     366.364E-03     154.801E+06    -64.4262E+06    -96.7069E+06    -232.512E+06    -96.9059E+06    -232.313E+06    -64.4262E+06    -330.168E+03
            1154     5.61890E-03     3.33269E-03     4.52385E-03     359.759E-03    -177.132E-03    -182.627E-03    -175.499E-03     358.126E-03    -182.627E-03     58.7292E-03     368.259E-03     171.475E+06    -83.1664E+06    -106.530E+06    -264.987E+06    -106.908E+06    -264.609E+06    -83.1664E+06     6.50085E+06
            1155     5.21941E-03     2.49859E-03     4.58250E-03     363.028E-03    -179.876E-03    -183.152E-03    -178.932E-03     362.008E-03    -183.076E-03     46.4820E-03     368.334E-03     181.242E+06    -100.181E+06    -114.914E+06    -288.283E+06    -115.598E+06    -287.599E+06    -100.181E+06     10.7637E+06
            1156     4.92200E-03     1.66528E-03     4.63173E-03     365.139E-03    -181.739E-03    -183.400E-03    -181.367E-03     364.634E-03    -183.267E-03     32.3939E-03     367.986E-03     185.143E+06    -113.705E+06    -121.400E+06    -302.521E+06    -121.818E+06    -301.966E+06    -113.842E+06     9.81265E+06
            1157     4.73941E-03     833.472E-06     4.66555E-03     366.127E-03    -182.471E-03    -183.657E-03    -182.906E-03     365.959E-03    -183.053E-03     17.7578E-03     367.504E-03     185.276E+06    -122.548E+06    -125.939E+06    -309.476E+06    -125.412E+06    -309.250E+06    -123.301E+06     5.96925E+06
            1158     14.6784E-03     14.3932E-03     2.87929E-03     347.935E-03    -166.057E-03    -181.878E-03    -177.452E-03     343.623E-03    -166.171E-03     91.8843E-03     433.393E-03     143.074E+06     136.610E+06     128.358E+06    -10.3937E+06    -10.2074E+06     128.172E+06     136.610E+06     1.78793E+06
            1159     13.8557E-03     13.5844E-03     2.72859E-03     335.288E-03    -157.948E-03    -177.340E-03    -165.811E-03     331.528E-03    -165.718E-03     81.7597E-03     399.895E-03     130.688E+06     118.636E+06     112.734E+06    -14.8871E+06    -14.6909E+06     114.199E+06     116.974E+06     1.61634E+06
            1160     13.0124E-03     12.7256E-03     2.71687E-03     313.233E-03    -145.333E-03    -167.900E-03    -144.328E-03     310.603E-03    -166.275E-03     67.6003E-03     355.599E-03     122.370E+06     100.474E+06     92.9101E+06    -25.3383E+06    -25.1204E+06     99.1693E+06     93.9968E+06     2.70190E+06
            1161     12.1456E-03     11.8412E-03     2.70258E-03     304.869E-03    -136.831E-03    -168.038E-03    -133.715E-03     301.753E-03    -168.038E-03     73.7106E-03     338.740E-03     120.442E+06     91.0132E+06     75.1430E+06    -35.9971E+06    -35.7739E+06     90.6835E+06     75.2496E+06     1.77713E+06
            1162     11.2941E-03     10.9666E-03     2.70029E-03     302.336E-03    -131.656E-03    -170.680E-03    -128.701E-03     299.381E-03    -170.680E-03     71.0113E-03     328.415E-03     120.274E+06     86.8454E+06     60.3031E+06    -42.7112E+06    -42.5793E+06     85.2465E+06     61.7702E+06    -1.67695E+06
            1163     10.4446E-03     10.0850E-03     2.71677E-03     304.878E-03    -130.865E-03    -174.014E-03    -127.991E-03     302.004E-03    -174.014E-03     69.8734E-03     326.384E-03     111.963E+06     74.8390E+06     42.4481E+06    -48.1292E+06    -47.5514E+06     65.8691E+06     50.8402E+06    -6.64902E+06
            1164     9.60481E-03     9.20523E-03     2.74155E-03     311.514E-03    -133.692E-03    -177.822E-03    -130.902E-03     308.723E-03    -177.822E-03     69.0484E-03     329.692E-03     91.7488E+06     48.0760E+06     13.4457E+06    -55.3970E+06    -51.7957E+06     24.7283E+06     33.1920E+06    -14.2606E+06
            1165     8.78070E-03     8.33278E-03     2.76866E-03     320.962E-03    -139.018E-03    -181.944E-03    -136.248E-03     318.193E-03    -181.944E-03     69.7790E-03     337.107E-03     74.7752E+06     17.3119E+06    -17.3520E+06    -67.8851E+06    -55.8521E+06    -24.3727E+06     12.2996E+06    -20.3696E+06
            1166     7.97573E-03     7.46520E-03     2.80768E-03     332.527E-03    -146.276E-03    -186.251E-03    -143.596E-03     329.847E-03    -186.251E-03     70.0190E-03     346.981E-03     73.9560E+06    -7.87064E+06    -44.3842E+06    -92.5257E+06    -61.7989E+06     -75.111E+06    -7.87064E+06    -20.1223E+06
            1167     7.19258E-03     6.60577E-03     2.84553E-03     345.099E-03    -154.488E-03    -190.611E-03    -152.029E-03     342.640E-03    -190.611E-03     68.3993E-03     357.558E-03     90.6337E+06    -26.8806E+06    -65.2828E+06    -130.058E+06    -70.4894E+06    -124.852E+06    -26.8806E+06    -15.3917E+06
            1168     6.44191E-03     5.75436E-03     2.89578E-03     358.138E-03    -163.212E-03    -194.925E-03    -161.036E-03     355.961E-03    -194.925E-03     65.7911E-03     368.641E-03     113.478E+06    -43.5877E+06    -78.5502E+06    -170.227E+06    -79.9320E+06    -168.845E+06    -43.5877E+06    -8.66306E+06
            1169     5.72900E-03     4.91025E-03     2.95142E-03     372.108E-03    -173.056E-03    -199.051E-03    -171.174E-03     370.226E-03    -199.051E-03     62.6584E-03     380.763E-03     139.493E+06    -57.9994E+06    -87.9084E+06    -209.904E+06    -88.1126E+06    -209.699E+06    -57.9994E+06    -1.27933E+06
            1170     5.06486E-03     4.07669E-03     3.00557E-03     386.088E-03    -183.316E-03    -202.772E-03    -181.772E-03     384.544E-03    -202.772E-03     58.0132E-03     392.918E-03     165.732E+06    -70.1550E+06    -95.0513E+06    -246.884E+06    -95.3052E+06    -246.630E+06    -70.1550E+06     5.38039E+06
            1171     4.46425E-03     3.25021E-03     3.06035E-03     398.602E-03    -192.713E-03    -205.890E-03    -191.547E-03     397.437E-03    -205.890E-03     51.3310E-03     403.687E-03     181.367E+06    -81.5580E+06    -101.240E+06    -271.936E+06    -101.804E+06    -271.372E+06    -81.5580E+06     9.64233E+06
            1172     3.94983E-03     2.43179E-03     3.11247E-03     408.647E-03    -200.289E-03    -208.358E-03    -199.520E-03     407.878E-03    -208.358E-03     42.0429E-03     412.112E-03     184.416E+06    -92.6294E+06    -105.053E+06    -282.896E+06    -105.698E+06    -282.251E+06    -92.6294E+06     10.5447E+06
            1173     3.54255E-03     1.61740E-03     3.15178E-03     416.318E-03    -206.043E-03    -210.275E-03    -205.649E-03     415.925E-03    -210.275E-03     29.9049E-03     418.482E-03     183.769E+06    -101.513E+06    -107.827E+06    -288.333E+06    -108.110E+06    -287.906E+06    -101.658E+06     8.49029E+06
            1174     3.28056E-03     806.892E-06     3.17978E-03     421.874E-03    -209.892E-03    -211.982E-03    -210.577E-03     421.739E-03    -211.162E-03     16.9995E-03     423.198E-03     182.990E+06    -107.431E+06    -111.615E+06    -292.458E+06    -111.023E+06    -292.290E+06    -108.191E+06     5.02241E+06
            1175     14.4795E-03     14.4118E-03     1.39813E-03     357.248E-03    -166.157E-03    -191.092E-03    -184.645E-03     352.898E-03    -168.253E-03     96.1042E-03     411.508E-03     139.969E+06     140.039E+06     128.994E+06    -5.08419E+06    -4.86554E+06     128.775E+06     140.039E+06     1.03964E+06
            1176     13.6198E-03     13.5498E-03     1.37935E-03     324.008E-03    -151.898E-03    -172.109E-03    -153.333E-03     321.396E-03    -168.064E-03     69.3597E-03     356.209E-03     125.380E+06     114.441E+06     108.204E+06    -13.9252E+06    -13.6407E+06     110.132E+06     112.229E+06     3.27305E+06
            1177     12.7316E-03     12.6587E-03     1.36113E-03     306.288E-03    -136.814E-03    -169.475E-03    -134.836E-03     304.311E-03    -169.475E-03     55.4407E-03     326.108E-03     115.882E+06     100.419E+06     84.0012E+06    -22.1034E+06    -21.8253E+06     100.141E+06     84.0012E+06     4.88430E+06
            1178     11.8691E-03     11.7921E-03     1.34943E-03     302.187E-03    -130.186E-03    -172.001E-03    -128.532E-03     300.534E-03    -172.001E-03     48.7433E-03     317.495E-03     112.564E+06     97.8852E+06     58.4880E+06    -27.6940E+06    -27.5162E+06     97.7074E+06     58.4880E+06     1.34496E+06
            1179     10.9893E-03     10.9055E-03     1.35470E-03     301.782E-03    -126.459E-03    -175.322E-03    -125.124E-03     300.446E-03    -175.322E-03     43.5088E-03     313.824E-03     108.428E+06     90.0188E+06     29.9935E+06    -33.0767E+06    -32.9604E+06     89.9024E+06     29.9935E+06    -3.13531E+06
            1180     10.1142E-03     10.0222E-03     1.36085E-03     306.850E-03    -127.495E-03    -179.355E-03    -126.312E-03     305.667E-03    -179.355E-03     40.6081E-03     316.839E-03     101.815E+06     73.0910E+06     4.31212E+06    -40.4961E+06    -39.8228E+06     72.4177E+06     4.31212E+06    -7.71462E+06
            1181     9.24834E-03     9.14598E-03     1.37214E-03     315.467E-03    -131.490E-03    -183.977E-03    -130.478E-03     314.455E-03    -183.977E-03     38.4389E-03     323.906E-03     77.4521E+06     34.3630E+06    -14.2880E+06    -51.0362E+06    -47.7257E+06     31.0525E+06    -14.2880E+06    -13.9542E+06
            1182     8.38502E-03     8.26874E-03     1.39158E-03     326.405E-03    -137.316E-03    -189.089E-03    -136.353E-03     325.442E-03    -189.089E-03     37.9764E-03     333.786E-03     48.7345E+06    -13.1518E+06    -35.1414E+06    -67.8565E+06    -57.5595E+06    -30.7325E+06    -27.8577E+06    -16.1495E+06
            1183     7.53185E-03     7.39976E-03     1.40439E-03     339.458E-03    -144.872E-03    -194.586E-03    -143.938E-03     338.524E-03    -194.586E-03     38.0101E-03     345.723E-03     53.6750E+06    -37.7560E+06    -59.1495E+06    -98.7532E+06    -68.4155E+06    -89.4873E+06    -37.7560E+06    -12.3366E+06
            1184     6.69356E-03     6.53937E-03     1.42844E-03     354.218E-03    -153.853E-03    -200.365E-03    -153.011E-03     353.377E-03    -200.365E-03     37.0532E-03     359.385E-03     83.9926E+06    -47.0059E+06    -76.5851E+06    -141.670E+06    -78.2314E+06    -140.024E+06    -47.0059E+06    -7.22456E+06
            1185     5.86836E-03     5.68489E-03     1.45592E-03     371.212E-03    -164.927E-03    -206.285E-03    -164.164E-03     370.449E-03    -206.285E-03     36.3517E-03     375.567E-03     116.708E+06    -54.9606E+06    -85.6493E+06    -183.874E+06    -85.8502E+06    -183.674E+06    -54.9606E+06    -3.02330E+06
            1186     5.06621E-03     4.84392E-03     1.48423E-03     389.749E-03    -177.634E-03    -212.115E-03    -176.948E-03     389.063E-03    -212.115E-03     35.4814E-03     393.266E-03     149.118E+06    -61.6391E+06    -91.3849E+06    -223.344E+06    -91.4424E+06    -223.287E+06    -61.6391E+06     1.31881E+06
            1187     4.28940E-03     4.01266E-03     1.51576E-03     408.137E-03    -190.507E-03    -217.630E-03    -189.929E-03     407.559E-03    -217.630E-03     33.4444E-03     410.836E-03     174.862E+06    -68.9230E+06    -95.0616E+06    -255.341E+06    -95.2828E+06    -255.120E+06    -68.9230E+06     5.36863E+06
            1188     3.54723E-03     3.19249E-03     1.54624E-03     425.828E-03    -203.222E-03    -222.606E-03    -202.779E-03     425.385E-03    -222.606E-03     29.7661E-03     427.928E-03     183.405E+06    -78.8142E+06    -97.4290E+06    -270.773E+06    -97.7614E+06    -270.441E+06    -78.8142E+06     7.07231E+06
            1189     2.85624E-03     2.38319E-03     1.57434E-03     441.744E-03    -214.949E-03    -226.795E-03    -214.657E-03     441.452E-03    -226.795E-03     24.5580E-03     443.415E-03     181.005E+06    -88.3452E+06    -99.0136E+06    -274.422E+06    -99.2722E+06    -274.164E+06    -88.3452E+06     6.11205E+06
            1190     2.25131E-03     1.58394E-03     1.59985E-03     454.257E-03    -224.233E-03    -230.025E-03    -224.081E-03     454.105E-03    -230.025E-03     17.9827E-03     455.569E-03     180.706E+06    -94.4203E+06    -99.6280E+06    -277.654E+06    -99.6436E+06    -277.494E+06    -94.5647E+06     4.48673E+06
            1191     1.79692E-03     789.909E-06     1.61399E-03     462.635E-03    -230.102E-03    -232.533E-03    -230.322E-03     462.581E-03    -232.260E-03     10.4737E-03     463.706E-03     179.748E+06    -98.0920E+06    -101.481E+06    -279.503E+06    -100.802E+06    -279.419E+06    -98.8556E+06     3.15401E+06
            1192     77.4592E-03     849.409E-06     77.4546E-03     329.737E-03    -164.720E-03    -165.017E-03    -164.961E-03     329.731E-03    -164.770E-03     2.56179E-03     330.332E-03     176.623E+06    -176.808E+06    -183.571E+06    -356.701E+06    -182.662E+06    -356.694E+06    -177.724E+06    -998.647E+03
            1193     77.4790E-03     1.69665E-03     77.4605E-03     330.099E-03    -164.897E-03    -165.202E-03    -165.073E-03     330.080E-03    -165.006E-03     5.97669E-03     331.925E-03     166.564E+06    -157.260E+06    -174.816E+06    -331.722E+06    -174.819E+06    -331.719E+06    -157.260E+06    -288.296E+03
            1194     77.5112E-03     2.54354E-03     77.4694E-03     329.943E-03    -164.697E-03    -165.246E-03    -164.758E-03     329.895E-03    -165.137E-03     9.50977E-03     333.785E-03     154.917E+06    -129.031E+06    -164.189E+06    -298.207E+06    -164.190E+06    -298.206E+06    -129.031E+06     129.343E+03
            1195     77.5556E-03     3.39215E-03     77.4814E-03     329.679E-03    -164.499E-03    -165.180E-03    -164.392E-03     329.572E-03    -165.180E-03     14.3017E-03     336.148E-03     144.588E+06    -98.6326E+06    -151.924E+06    -261.977E+06    -151.926E+06    -261.975E+06    -98.6326E+06     135.705E+03
            1196     77.6163E-03     4.24129E-03     77.5004E-03     329.758E-03    -164.552E-03    -165.206E-03    -164.354E-03     329.559E-03    -165.206E-03     19.6378E-03     339.211E-03     136.867E+06    -69.7255E+06    -138.991E+06    -227.055E+06    -138.995E+06    -227.051E+06    -69.7255E+06     12.8451E+03
            1197     77.6926E-03     5.08834E-03     77.5258E-03     329.691E-03    -164.465E-03    -165.226E-03    -164.150E-03     329.376E-03    -165.226E-03     24.7968E-03     342.385E-03     127.943E+06    -43.0586E+06    -124.649E+06    -190.170E+06    -124.651E+06    -190.168E+06    -43.0586E+06    -98.3449E+03
            1198     77.7856E-03     5.93805E-03     77.5587E-03     329.527E-03    -164.309E-03    -165.219E-03    -163.852E-03     329.070E-03    -165.219E-03     29.9304E-03     345.483E-03     118.833E+06    -18.7599E+06    -110.644E+06    -152.390E+06    -110.646E+06    -152.388E+06    -18.7599E+06     74.0648E+03
            1199     77.8936E-03     6.78616E-03     77.5974E-03     329.378E-03    -164.196E-03    -165.182E-03    -163.583E-03     328.766E-03    -165.182E-03     34.6813E-03     348.439E-03     111.341E+06     2.08921E+06    -97.9853E+06    -117.370E+06    -97.9893E+06    -117.366E+06     2.08921E+06     118.413E+03
            1200     78.0157E-03     7.63558E-03     77.6411E-03     329.383E-03    -164.251E-03    -165.132E-03    -163.490E-03     328.623E-03    -165.132E-03     38.6719E-03     351.617E-03     105.118E+06     20.6667E+06    -76.2446E+06    -90.8972E+06    -86.0749E+06    -81.0669E+06     20.6667E+06     240.546E+03
            1201     78.1529E-03     8.48514E-03     77.6909E-03     329.664E-03    -164.572E-03    -165.092E-03    -163.665E-03     328.757E-03    -165.092E-03     42.2673E-03     355.259E-03     101.114E+06      38.353E+06    -40.5289E+06    -74.4702E+06    -74.4571E+06    -40.5420E+06      38.353E+06     134.282E+03
            1202     78.3034E-03     9.33283E-03     77.7452E-03     329.672E-03    -164.618E-03    -165.054E-03    -163.548E-03     328.602E-03    -165.054E-03     45.9043E-03     359.071E-03     105.652E+06     55.6389E+06     8.43993E+06    -63.0421E+06    -63.0332E+06     8.43103E+06     55.6389E+06    -15.5866E+03
            1203     78.4681E-03     10.1816E-03     77.8048E-03     329.587E-03    -164.577E-03    -165.009E-03    -163.333E-03     328.342E-03    -165.009E-03     49.5048E-03     363.612E-03     120.778E+06     75.2736E+06     60.0922E+06    -51.8208E+06    -51.8207E+06     61.7211E+06     73.6446E+06     70.8668E+03
            1204     78.6455E-03     11.0315E-03     77.8680E-03     329.787E-03    -164.773E-03    -165.014E-03    -163.393E-03     328.342E-03    -164.949E-03     53.3593E-03     369.480E-03     128.138E+06     91.7135E+06     80.8221E+06    -41.3398E+06    -41.3390E+06     91.7126E+06     80.8221E+06    -90.9671E+03
            1205     78.8364E-03     11.8802E-03     77.9362E-03     330.271E-03    -164.920E-03    -165.351E-03    -163.565E-03     328.494E-03    -164.928E-03     59.1402E-03     377.460E-03     125.520E+06     99.0984E+06     85.4205E+06    -32.6296E+06    -32.6258E+06     99.0947E+06     85.4205E+06    -103.176E+03
            1206     79.0474E-03     12.7287E-03     78.0158E-03     330.261E-03    -164.948E-03    -165.313E-03    -163.376E-03     328.331E-03    -164.956E-03     61.7141E-03     384.101E-03     125.584E+06     104.431E+06     97.2615E+06    -24.5755E+06    -24.5722E+06     104.427E+06     97.2615E+06     81.3949E+03
            1207     79.2630E-03     13.5780E-03     78.0914E-03     330.920E-03    -164.966E-03    -165.953E-03    -163.004E-03     327.978E-03    -164.974E-03     74.8954E-03     400.209E-03     130.580E+06     115.231E+06     112.367E+06    -16.7348E+06    -16.7333E+06     115.147E+06     112.450E+06    -18.0938E+03
            1208     79.5263E-03     14.4292E-03     78.2063E-03     330.688E-03    -164.715E-03    -165.973E-03    -162.985E-03     327.979E-03    -164.994E-03     70.8454E-03     399.925E-03     138.984E+06     132.019E+06     129.026E+06    -8.41814E+06    -8.41650E+06     129.051E+06     131.991E+06    -254.155E+03
            1209     78.8497E-03     846.947E-06     78.8451E-03     330.850E-03    -164.932E-03    -165.919E-03    -165.601E-03     330.845E-03    -165.244E-03     2.43676E-03     331.464E-03     176.323E+06    -175.887E+06    -182.648E+06    -355.469E+06    -182.057E+06    -355.456E+06    -176.491E+06    -389.326E+03
            1210     78.8690E-03     1.69498E-03     78.8508E-03     330.046E-03    -164.590E-03    -165.456E-03    -164.658E-03     330.027E-03    -165.369E-03     5.74306E-03     331.891E-03     166.574E+06    -156.933E+06    -174.802E+06    -331.547E+06    -174.806E+06    -331.543E+06    -156.933E+06    -285.688E+03
            1211     78.8999E-03     2.54438E-03     78.8589E-03     329.553E-03    -164.339E-03    -165.214E-03    -164.287E-03     329.502E-03    -165.214E-03     9.81914E-03     333.395E-03     154.809E+06    -129.165E+06    -164.903E+06    -298.374E+06    -164.905E+06    -298.372E+06    -129.165E+06     318.954E+03
            1212     78.9434E-03     3.39287E-03     78.8705E-03     329.765E-03    -164.588E-03    -165.176E-03    -164.477E-03     329.653E-03    -165.176E-03     14.6017E-03     336.189E-03     144.271E+06    -98.7715E+06    -152.336E+06    -261.880E+06    -152.343E+06    -261.873E+06    -98.7715E+06     8.11026E+03
            1213     79.0046E-03     4.24038E-03     78.8907E-03     329.846E-03    -164.628E-03    -165.218E-03    -164.430E-03     329.648E-03    -165.218E-03     19.6401E-03     339.330E-03     136.310E+06    -69.6067E+06    -138.364E+06    -226.258E+06    -138.374E+06    -226.248E+06    -69.6067E+06    -109.263E+03
            1214     79.0799E-03     5.08966E-03     78.9159E-03     329.655E-03    -164.415E-03    -165.241E-03    -164.098E-03     329.339E-03    -165.241E-03     24.8390E-03     342.397E-03     127.601E+06    -43.0081E+06    -124.709E+06    -189.679E+06    -124.714E+06    -189.674E+06    -43.0081E+06    -68.9618E+03
            1215     79.1709E-03     5.93715E-03     78.9480E-03     329.438E-03    -164.217E-03    -165.221E-03    -163.758E-03     328.978E-03    -165.221E-03     30.0091E-03     345.355E-03     118.840E+06    -19.0100E+06    -111.109E+06    -152.627E+06    -111.111E+06    -152.625E+06    -19.0100E+06    -138.181E+03
            1216     79.2776E-03     6.78699E-03     78.9865E-03     329.426E-03    -164.244E-03    -165.182E-03    -163.644E-03     328.825E-03    -165.182E-03     34.3578E-03     348.480E-03     111.327E+06     2.05847E+06    -97.9808E+06    -117.389E+06    -97.9838E+06    -117.386E+06     2.05847E+06    -21.0002E+03
            1217     79.3986E-03     7.63549E-03     79.0306E-03     329.584E-03    -164.437E-03    -165.147E-03    -163.690E-03     328.837E-03    -165.147E-03     38.3416E-03     351.785E-03     104.963E+06     21.0674E+06    -75.6574E+06    -90.3507E+06    -85.5517E+06    -80.4565E+06     21.0674E+06    -4.97530E+03
            1218     79.5347E-03     8.48334E-03     79.0810E-03     329.580E-03    -164.469E-03    -165.110E-03    -163.566E-03     328.676E-03    -165.110E-03     42.1747E-03     355.126E-03     100.899E+06     38.4965E+06    -39.9273E+06    -74.1538E+06    -74.1364E+06    -39.9448E+06     38.4965E+06    -133.194E+03
            1219     79.6835E-03     9.33307E-03     79.1351E-03     329.431E-03    -164.375E-03    -165.055E-03    -163.306E-03     328.361E-03    -165.055E-03     45.8749E-03     358.807E-03     105.470E+06     55.7292E+06     8.61074E+06    -62.8269E+06    -62.8188E+06     8.60271E+06     55.7292E+06    -185.220E+03
            1220     79.8459E-03     10.1827E-03     79.1939E-03     329.359E-03    -164.368E-03    -164.991E-03    -163.122E-03     328.113E-03    -164.991E-03     49.5113E-03     363.389E-03     121.206E+06     75.7068E+06     59.8574E+06    -52.1111E+06    -52.1098E+06     62.0265E+06     73.5365E+06    -234.187E+03
            1221     80.0218E-03     11.0315E-03     79.2578E-03     329.601E-03    -164.618E-03    -164.983E-03    -163.249E-03     328.167E-03    -164.919E-03     53.1377E-03     369.249E-03     128.805E+06     91.6952E+06     80.4249E+06    -42.2221E+06    -42.2204E+06     91.6934E+06     80.4249E+06    -340.946E+03
            1222     80.2115E-03     11.8806E-03     79.3268E-03     330.089E-03    -164.860E-03    -165.229E-03    -163.419E-03     328.308E-03    -164.889E-03     59.1511E-03     377.215E-03     125.392E+06     98.7836E+06     85.0781E+06    -32.8373E+06    -32.8347E+06     98.7809E+06     85.0781E+06     119.759E+03
            1223     80.4199E-03     12.7300E-03     79.4060E-03     330.060E-03    -164.879E-03    -165.181E-03    -163.214E-03     328.120E-03    -164.906E-03     61.8504E-03     383.763E-03     125.049E+06     104.221E+06     96.5781E+06    -24.4669E+06    -24.4638E+06     104.218E+06     96.5781E+06     261.457E+03
            1224     80.6321E-03     13.5797E-03     79.4804E-03     331.221E-03    -164.909E-03    -166.313E-03    -163.343E-03     328.278E-03    -164.935E-03     74.9494E-03     400.392E-03     130.371E+06     115.711E+06     112.561E+06    -16.1794E+06    -16.1749E+06     115.622E+06     112.647E+06     50.8587E+03
            1225     80.8921E-03     14.4287E-03     79.5949E-03     331.177E-03    -164.816E-03    -166.361E-03    -163.487E-03     328.470E-03    -164.984E-03     70.8207E-03     400.489E-03     139.318E+06     132.440E+06     129.764E+06    -8.18067E+06    -8.17713E+06     129.788E+06     132.413E+06    -31.9093E+03
            1226     80.2419E-03     847.015E-06     80.2374E-03     330.739E-03    -164.739E-03    -165.999E-03    -165.378E-03     330.731E-03    -165.353E-03     3.53964E-03     331.383E-03     175.747E+06    -176.671E+06    -183.136E+06    -355.515E+06    -182.101E+06    -355.497E+06    -177.723E+06     357.123E+03
            1227     80.2577E-03     1.69541E-03     80.2398E-03     330.134E-03    -164.678E-03    -165.456E-03    -164.764E-03     330.113E-03    -165.349E-03     6.20939E-03     332.006E-03     165.861E+06    -157.123E+06    -176.362E+06    -331.587E+06    -176.374E+06    -331.575E+06    -157.123E+06     174.329E+03
            1228     80.2870E-03     2.54420E-03     80.2467E-03     329.862E-03    -164.550E-03    -165.312E-03    -164.549E-03     329.813E-03    -165.264E-03     9.57316E-03     333.697E-03     154.808E+06    -129.052E+06    -165.176E+06    -298.430E+06    -165.181E+06    -298.425E+06    -129.052E+06    -29.8503E+03
            1229     80.3334E-03     3.39226E-03     80.2617E-03     329.788E-03    -164.542E-03    -165.246E-03    -164.436E-03     329.682E-03    -165.246E-03     14.2038E-03     336.219E-03     143.503E+06    -98.5523E+06    -151.949E+06    -260.770E+06    -151.954E+06    -260.764E+06    -98.5523E+06    -92.4236E+03
            1230     80.3921E-03     4.24073E-03     80.2802E-03     329.598E-03    -164.352E-03    -165.246E-03    -164.155E-03     329.401E-03    -165.246E-03     19.5137E-03     339.100E-03     136.307E+06    -69.3586E+06    -138.290E+06    -226.053E+06    -138.300E+06    -226.043E+06    -69.3586E+06    -219.258E+03
            1231     80.4667E-03     5.08858E-03     80.3056E-03     329.521E-03    -164.293E-03    -165.229E-03    -163.975E-03     329.204E-03    -165.229E-03     24.9035E-03     342.250E-03     127.669E+06    -42.8415E+06    -124.627E+06    -189.540E+06    -124.638E+06    -189.529E+06    -42.8415E+06     51.7403E+03
            1232     80.5568E-03     5.93833E-03     80.3376E-03     329.639E-03    -164.424E-03    -165.215E-03    -163.970E-03     329.185E-03    -165.215E-03     29.8564E-03     345.537E-03     118.555E+06    -19.0089E+06    -111.465E+06    -152.129E+06    -111.475E+06    -152.119E+06    -19.0089E+06    -89.1612E+03
            1233     80.6620E-03     6.78601E-03     80.3760E-03     329.693E-03    -164.488E-03    -165.205E-03    -163.889E-03     329.094E-03    -165.205E-03     34.3223E-03     348.750E-03     111.167E+06     2.00323E+06    -97.9572E+06    -117.315E+06    -97.9883E+06    -117.284E+06     2.00323E+06    -486.269E+03
            1234     80.7827E-03     7.63464E-03     80.4211E-03     329.571E-03    -164.392E-03    -165.179E-03    -163.638E-03     328.817E-03    -165.179E-03     38.5079E-03     351.755E-03     104.772E+06     21.0557E+06    -75.1617E+06    -90.3884E+06    -85.2377E+06    -80.3124E+06     21.0557E+06    -353.608E+03
            1235     80.9161E-03     8.48447E-03     80.4700E-03     329.393E-03    -164.266E-03    -165.127E-03    -163.357E-03     328.485E-03    -165.127E-03     42.2795E-03     354.924E-03     100.903E+06     38.7988E+06    -39.3462E+06    -73.9421E+06    -73.9301E+06    -39.3582E+06     38.7988E+06    -12.4011E+03
            1236     81.0637E-03     9.33318E-03     80.5246E-03     329.298E-03    -164.243E-03    -165.055E-03    -163.180E-03     328.235E-03    -165.055E-03     45.7139E-03     358.657E-03     106.199E+06     55.8745E+06     9.35776E+06    -63.2837E+06    -63.2794E+06     9.35349E+06     55.8745E+06     72.2455E+03
            1237     81.2240E-03     10.1820E-03     80.5832E-03     329.297E-03    -164.313E-03    -164.984E-03    -163.072E-03     328.056E-03    -164.984E-03     49.4025E-03     363.281E-03     122.036E+06     75.6641E+06     60.4271E+06    -52.7933E+06    -52.7914E+06     62.5312E+06     73.5580E+06    -224.409E+03
            1238     81.3987E-03     11.0316E-03     80.6477E-03     329.366E-03    -164.466E-03    -164.900E-03    -163.022E-03     327.922E-03    -164.900E-03     53.3006E-03     368.943E-03     128.690E+06     91.1007E+06     79.9195E+06    -42.6581E+06    -42.6568E+06     91.0994E+06     79.9195E+06    -373.756E+03
            1239     81.5858E-03     11.8810E-03     80.7161E-03     329.719E-03    -164.716E-03    -165.002E-03    -163.086E-03     327.937E-03    -164.851E-03     59.1402E-03     376.803E-03     125.187E+06     98.1526E+06     84.4108E+06    -33.2788E+06    -33.2777E+06     98.1515E+06     84.4108E+06    -171.027E+03
            1240     81.7921E-03     12.7306E-03     80.7953E-03     330.172E-03    -164.848E-03    -165.324E-03    -163.401E-03     328.270E-03    -164.869E-03     61.2642E-03     383.782E-03     125.767E+06     104.735E+06     97.0227E+06    -24.7027E+06    -24.7010E+06     104.733E+06     97.0227E+06    -239.017E+03
            1241     82.0020E-03     13.5799E-03     80.8697E-03     331.654E-03    -164.904E-03    -166.751E-03    -163.861E-03     328.786E-03    -164.924E-03     74.0345E-03     400.715E-03     130.901E+06     115.960E+06     112.726E+06    -16.5030E+06    -16.4994E+06     115.769E+06     112.914E+06    -14.8989E+03
            1242     82.2624E-03     14.4285E-03     80.9871E-03     331.238E-03    -164.723E-03    -166.515E-03    -163.580E-03     328.572E-03    -164.992E-03     70.4248E-03     400.550E-03     139.264E+06     132.371E+06     129.820E+06    -8.13862E+06    -8.13474E+06     129.817E+06     132.371E+06     283.971E+03
            1243     81.6313E-03     849.437E-06     81.6269E-03     329.689E-03    -164.317E-03    -165.372E-03    -164.398E-03     329.684E-03    -165.285E-03     2.80479E-03     330.305E-03     175.165E+06    -177.505E+06    -183.427E+06    -355.506E+06    -182.991E+06    -355.494E+06    -177.953E+06     165.178E+03
            1244     81.6478E-03     1.69668E-03     81.6302E-03     330.399E-03    -165.045E-03    -165.354E-03    -165.333E-03     330.378E-03    -165.045E-03     6.17986E-03     332.237E-03     166.275E+06    -156.632E+06    -175.285E+06    -331.271E+06    -175.294E+06    -331.262E+06    -156.632E+06     42.7863E+03
            1245     81.6775E-03     2.54304E-03     81.6379E-03     330.504E-03    -165.006E-03    -165.497E-03    -165.176E-03     330.451E-03    -165.275E-03     9.95858E-03     334.368E-03     154.410E+06    -129.187E+06    -164.422E+06    -297.893E+06    -164.425E+06    -297.890E+06    -129.187E+06    -352.052E+03
            1246     81.7211E-03     3.39145E-03     81.6507E-03     329.761E-03    -164.426E-03    -165.335E-03    -164.319E-03     329.654E-03    -165.335E-03     14.3203E-03     336.261E-03     143.571E+06    -98.7398E+06    -151.946E+06    -260.944E+06    -151.948E+06    -260.942E+06    -98.7398E+06     263.683E+03
            1247     81.7796E-03     4.24052E-03     81.6696E-03     329.394E-03    -164.108E-03    -165.286E-03    -163.913E-03     329.199E-03    -165.286E-03     19.3897E-03     338.881E-03     136.469E+06    -68.5108E+06    -138.336E+06    -225.452E+06    -138.341E+06    -225.447E+06    -68.5108E+06     66.4824E+03
            1248     81.8536E-03     5.08995E-03     81.6952E-03     329.565E-03    -164.324E-03    -165.241E-03    -164.011E-03     329.251E-03    -165.241E-03     24.7301E-03     342.259E-03     127.796E+06    -42.6889E+06    -124.616E+06    -189.579E+06    -124.634E+06    -189.561E+06    -42.6889E+06    -387.949E+03
            1249     81.9429E-03     5.93729E-03     81.7275E-03     329.699E-03    -164.471E-03    -165.228E-03    -164.018E-03     329.246E-03    -165.228E-03     29.8074E-03     345.597E-03     117.883E+06    -19.1715E+06    -111.136E+06    -151.450E+06    -111.160E+06    -151.426E+06    -19.1715E+06    -143.421E+03
            1250     82.0479E-03     6.78621E-03     81.7667E-03     329.648E-03    -164.430E-03    -165.218E-03    -163.824E-03     329.042E-03    -165.218E-03     34.5182E-03     348.699E-03     110.976E+06     1.88805E+06    -98.5232E+06    -116.839E+06    -98.5594E+06    -116.803E+06     1.88805E+06    -206.954E+03
            1251     82.1653E-03     7.63518E-03     81.8098E-03     329.498E-03    -164.316E-03    -165.183E-03    -163.558E-03     328.740E-03    -165.183E-03     38.6220E-03     351.702E-03     105.141E+06     20.5474E+06    -76.2346E+06    -91.0930E+06    -86.4941E+06    -80.8335E+06     20.5474E+06    -333.901E+03
            1252     82.2985E-03     8.48345E-03     81.8601E-03     329.351E-03    -164.226E-03    -165.125E-03    -163.316E-03     328.442E-03    -165.125E-03     42.2810E-03     354.893E-03     101.089E+06     38.8683E+06    -39.3130E+06    -74.1232E+06    -74.1077E+06    -39.3286E+06     38.8683E+06    -152.584E+03
            1253     82.4434E-03     9.33289E-03     81.9134E-03     329.232E-03    -164.185E-03    -165.047E-03    -163.110E-03     328.157E-03    -165.047E-03     45.9508E-03     358.578E-03     105.966E+06     56.1360E+06     9.82063E+06    -62.7493E+06    -62.7462E+06     9.81753E+06     56.1360E+06    -40.9689E+03
            1254     82.6032E-03     10.1826E-03     81.9732E-03     329.198E-03    -164.230E-03    -164.968E-03    -162.969E-03     327.938E-03    -164.968E-03     49.7707E-03     363.112E-03     121.339E+06     75.7826E+06     60.7469E+06    -51.8942E+06    -51.8925E+06     62.7495E+06     73.7783E+06    -14.0964E+03
            1255     82.7747E-03     11.0319E-03     82.0363E-03     329.403E-03    -164.460E-03    -164.943E-03    -163.080E-03     327.964E-03    -164.884E-03     53.2263E-03     368.908E-03     128.556E+06     91.7684E+06     80.4706E+06    -41.8964E+06    -41.8955E+06     91.7675E+06     80.4706E+06    -183.069E+03
            1256     82.9608E-03     11.8817E-03     82.1056E-03     329.957E-03    -164.745E-03    -165.212E-03    -163.374E-03     328.224E-03    -164.850E-03     58.3560E-03     377.047E-03     125.687E+06     98.5496E+06     84.9103E+06    -33.3271E+06    -33.3260E+06     98.5486E+06     84.9103E+06    -319.811E+03
            1257     83.1650E-03     12.7308E-03     82.1848E-03     330.411E-03    -164.888E-03    -165.523E-03    -163.647E-03     328.535E-03    -164.888E-03     60.8729E-03     384.083E-03     126.120E+06     104.862E+06     97.2710E+06    -24.8773E+06    -24.8766E+06     104.861E+06     97.2710E+06    -211.650E+03
            1258     83.3756E-03     13.5783E-03     82.2625E-03     331.492E-03    -164.943E-03    -166.549E-03    -163.691E-03     328.634E-03    -164.943E-03     73.9205E-03     400.648E-03     130.889E+06     115.650E+06     112.224E+06    -16.8893E+06    -16.8889E+06     115.468E+06     112.405E+06    -152.261E+03
            1259     83.6280E-03     14.4284E-03     82.3740E-03     330.983E-03    -164.712E-03    -166.271E-03    -163.319E-03     328.316E-03    -164.997E-03     70.5191E-03     400.262E-03     139.202E+06     131.814E+06     129.407E+06    -8.56541E+06    -8.56405E+06     129.406E+06     131.814E+06     91.8852E+03
            1260     83.0185E-03     847.286E-06     83.0142E-03     330.223E-03    -164.476E-03    -165.746E-03    -165.081E-03     330.219E-03    -165.138E-03     2.51703E-03     330.822E-03     175.290E+06    -176.449E+06    -182.626E+06    -354.702E+06    -181.871E+06    -354.699E+06    -177.207E+06    -137.095E+03
            1261     83.0382E-03     1.69625E-03     83.0209E-03     330.216E-03    -164.825E-03    -165.392E-03    -165.009E-03     330.198E-03    -165.190E-03     5.60809E-03     332.041E-03     166.238E+06    -156.844E+06    -174.809E+06    -331.187E+06    -174.812E+06    -331.184E+06    -156.844E+06    -169.916E+03
            1262     83.0684E-03     2.54449E-03     83.0294E-03     330.025E-03    -164.614E-03    -165.411E-03    -164.738E-03     329.975E-03    -165.237E-03     9.67573E-03     333.898E-03     154.184E+06    -129.202E+06    -164.564E+06    -297.647E+06    -164.565E+06    -297.646E+06    -129.202E+06     138.252E+03
            1263     83.1094E-03     3.39199E-03     83.0401E-03     329.869E-03    -164.606E-03    -165.263E-03    -164.493E-03     329.756E-03    -165.263E-03     14.7174E-03     336.379E-03     143.983E+06    -98.4116E+06    -151.847E+06    -261.208E+06    -151.852E+06    -261.203E+06    -98.4116E+06    -239.451E+03
            1264     83.1670E-03     4.24031E-03     83.0588E-03     329.785E-03    -164.505E-03    -165.280E-03    -164.303E-03     329.583E-03    -165.280E-03     19.8564E-03     339.284E-03     136.348E+06    -68.6934E+06    -137.729E+06    -225.386E+06    -137.738E+06    -225.377E+06    -68.6934E+06     102.426E+03
            1265     83.2404E-03     5.08823E-03     83.0848E-03     329.612E-03    -164.338E-03    -165.274E-03    -164.020E-03     329.294E-03    -165.274E-03     24.9084E-03     342.297E-03     127.412E+06    -42.3279E+06    -124.468E+06    -188.724E+06    -124.484E+06    -188.709E+06    -42.3279E+06         411.361
            1266     83.3298E-03     5.93766E-03     83.1180E-03     329.409E-03    -164.172E-03    -165.237E-03    -163.712E-03     328.949E-03    -165.237E-03     30.0348E-03     345.300E-03     118.162E+06    -18.9680E+06    -111.110E+06    -151.637E+06    -111.139E+06    -151.608E+06    -18.9680E+06    -403.409E+03
            1267     83.4318E-03     6.78641E-03     83.1553E-03     329.452E-03    -164.259E-03    -165.193E-03    -163.641E-03     328.834E-03    -165.193E-03     34.8358E-03     348.489E-03     110.961E+06     2.27881E+06    -97.9218E+06    -116.496E+06    -97.9522E+06    -116.466E+06     2.27881E+06     86.1097E+03
            1268     83.5503E-03     7.63486E-03     83.2007E-03     329.515E-03    -164.363E-03    -165.152E-03    -163.598E-03     328.750E-03    -165.152E-03     38.7985E-03     351.691E-03     105.190E+06     21.1518E+06    -75.6603E+06    -90.5335E+06    -86.0377E+06    -80.1561E+06     21.1518E+06     57.0823E+03
            1269     83.6796E-03     8.48448E-03     83.2483E-03     329.296E-03    -164.200E-03    -165.096E-03    -163.284E-03     328.379E-03    -165.096E-03     42.4438E-03     354.862E-03     100.886E+06     38.5442E+06    -39.6343E+06    -74.2319E+06    -74.2078E+06    -39.6585E+06     38.5442E+06    -439.730E+03
            1270     83.8249E-03     9.33354E-03     83.3036E-03     329.255E-03    -164.236E-03    -165.019E-03    -163.152E-03     328.171E-03    -165.019E-03     46.1785E-03     358.616E-03     105.620E+06     55.4619E+06     9.22822E+06    -62.9729E+06    -62.9551E+06     9.21038E+06     55.4619E+06    -51.0507E+03
            1271     83.9807E-03     10.1827E-03     83.3611E-03     329.490E-03    -164.531E-03    -164.959E-03    -163.291E-03     328.250E-03    -164.959E-03     49.4165E-03     363.437E-03     122.182E+06     76.0597E+06     60.5801E+06    -52.6876E+06    -52.6806E+06     63.1552E+06     73.4777E+06     146.572E+03
            1272     84.1533E-03     11.0321E-03     83.4270E-03     329.819E-03    -164.769E-03    -165.050E-03    -163.510E-03     328.418E-03    -164.908E-03     52.5691E-03     369.352E-03     129.848E+06     92.8391E+06     80.9453E+06    -42.4007E+06    -42.3992E+06     92.8377E+06     80.9453E+06    -273.973E+03
            1273     84.3360E-03     11.8802E-03     83.4950E-03     330.248E-03    -164.897E-03    -165.351E-03    -163.640E-03     328.537E-03    -164.897E-03     58.0071E-03     377.293E-03     125.914E+06     98.8941E+06     84.8968E+06    -33.3683E+06    -33.3677E+06     98.8935E+06     84.8968E+06    -213.343E+03
            1274     84.5396E-03     12.7286E-03     83.5759E-03     330.044E-03    -164.779E-03    -165.265E-03    -163.235E-03     328.159E-03    -164.924E-03     60.9800E-03     383.661E-03     125.679E+06     104.347E+06     96.3723E+06    -25.1210E+06    -25.1205E+06     104.347E+06     96.3723E+06     50.1263E+03
            1275     84.7458E-03     13.5798E-03     83.6507E-03     331.051E-03    -164.806E-03    -166.245E-03    -163.224E-03     328.176E-03    -164.951E-03     74.1374E-03     400.085E-03     130.666E+06     115.591E+06     112.175E+06    -16.7185E+06    -16.7175E+06     115.510E+06     112.255E+06    -24.8542E+03
            1276     84.9988E-03     14.4287E-03     83.7652E-03     330.981E-03    -164.725E-03    -166.256E-03    -163.323E-03     328.314E-03    -164.992E-03     70.4997E-03     400.156E-03     139.049E+06     131.823E+06     129.416E+06    -8.40142E+06    -8.40066E+06     129.462E+06     131.776E+06    -214.475E+03
            1277     84.4110E-03     847.928E-06     84.4067E-03     331.059E-03    -165.000E-03    -166.059E-03    -165.777E-03     331.055E-03    -165.278E-03     2.46337E-03     331.689E-03     175.550E+06    -175.901E+06    -183.147E+06    -354.939E+06    -182.390E+06    -354.937E+06    -176.659E+06    -54.0543E+03
            1278     84.4275E-03     1.69439E-03     84.4105E-03     330.005E-03    -164.570E-03    -165.435E-03    -164.551E-03     329.986E-03    -165.435E-03     5.84470E-03     331.871E-03     165.737E+06    -156.601E+06    -175.340E+06    -330.719E+06    -175.344E+06    -330.716E+06    -156.601E+06    -135.022E+03
            1279     84.4560E-03     2.54373E-03     84.4177E-03     329.472E-03    -164.249E-03    -165.222E-03    -164.200E-03     329.422E-03    -165.222E-03     9.62784E-03     333.334E-03     154.661E+06    -128.626E+06    -164.248E+06    -297.734E+06    -164.251E+06    -297.731E+06    -128.626E+06    -238.246E+03
            1280     84.4986E-03     3.39321E-03     84.4305E-03     329.678E-03    -164.517E-03    -165.161E-03    -164.408E-03     329.569E-03    -165.161E-03     14.4286E-03     336.125E-03     144.361E+06    -98.1748E+06    -151.377E+06    -261.244E+06    -151.392E+06    -261.229E+06    -98.1748E+06    -51.8235E+03
            1281     84.5558E-03     4.24075E-03     84.4494E-03     329.799E-03    -164.603E-03    -165.196E-03    -164.392E-03     329.587E-03    -165.196E-03     20.2194E-03     339.267E-03     136.267E+06    -69.0203E+06    -138.370E+06    -225.680E+06    -138.390E+06     -225.66E+06    -69.0203E+06     224.812E+03
            1282     84.6281E-03     5.08920E-03     84.4749E-03     329.636E-03    -164.419E-03    -165.217E-03    -164.085E-03     329.301E-03    -165.217E-03     25.6048E-03     342.347E-03     127.149E+06    -42.0919E+06    -124.155E+06    -188.160E+06    -124.163E+06    -188.152E+06    -42.0919E+06     112.079E+03
            1283     84.7145E-03     5.93772E-03     84.5062E-03     329.455E-03    -164.255E-03    -165.201E-03    -163.789E-03     328.989E-03    -165.201E-03     30.2261E-03     345.390E-03     118.453E+06    -18.2022E+06    -110.596E+06    -151.237E+06    -110.612E+06    -151.221E+06    -18.2022E+06    -104.480E+03
            1284     84.8176E-03     6.78681E-03     84.5457E-03     329.320E-03    -164.161E-03    -165.159E-03    -163.548E-03     328.707E-03    -165.159E-03     34.6771E-03     348.363E-03     111.152E+06     2.15533E+06    -97.7902E+06    -117.097E+06    -97.8209E+06    -117.066E+06     2.15533E+06    -96.8176E+03
            1285     84.9335E-03     7.63601E-03     84.5895E-03     329.308E-03    -164.201E-03    -165.106E-03    -163.437E-03     328.544E-03    -165.106E-03     38.7528E-03     351.445E-03     104.828E+06     21.3540E+06    -74.4416E+06    -90.3506E+06    -85.4744E+06    -79.3178E+06     21.3540E+06     409.801E+03
            1286     85.0628E-03     8.48419E-03     84.6387E-03     329.592E-03    -164.407E-03    -165.185E-03    -163.627E-03     328.690E-03    -165.063E-03     42.1471E-03     355.141E-03     101.026E+06     38.5425E+06    -39.1203E+06    -74.6434E+06    -74.6132E+06    -39.1505E+06     38.5425E+06     258.333E+03
            1287     85.2040E-03     9.33383E-03     84.6912E-03     329.728E-03    -164.577E-03    -165.151E-03    -163.654E-03     328.683E-03    -165.030E-03     45.3604E-03     359.126E-03     106.040E+06     55.1202E+06     8.75287E+06    -63.8145E+06    -63.7792E+06     8.71761E+06     55.1202E+06    -252.014E+03
            1288     85.3628E-03     10.1824E-03     84.7534E-03     329.602E-03    -164.606E-03    -164.996E-03    -163.387E-03     328.383E-03    -164.996E-03     48.9889E-03     363.555E-03     122.246E+06     76.7051E+06     60.8981E+06    -52.2530E+06    -52.2346E+06     63.7214E+06     73.8634E+06    -217.967E+03
            1289     85.5298E-03     11.0304E-03     84.8155E-03     329.793E-03    -164.737E-03    -165.056E-03    -163.403E-03     328.343E-03    -164.940E-03     53.4067E-03     369.312E-03     129.434E+06     92.6374E+06     80.7126E+06    -42.2195E+06    -42.2148E+06     92.6328E+06     80.7126E+06     186.243E+03
            1290     85.7144E-03     11.8799E-03     84.8871E-03     330.096E-03    -164.912E-03    -165.183E-03    -163.409E-03     328.322E-03    -164.912E-03     59.0837E-03     377.242E-03     125.641E+06     98.5561E+06     84.4676E+06    -33.4851E+06    -33.4815E+06     98.5525E+06     84.4676E+06     153.072E+03
            1291     85.9119E-03     12.7299E-03     84.9635E-03     329.969E-03    -164.782E-03    -165.187E-03    -163.131E-03     328.058E-03    -164.927E-03     61.3800E-03     383.766E-03     125.739E+06     104.544E+06     96.4545E+06    -25.0325E+06    -25.0313E+06     104.543E+06     96.4545E+06    -112.747E+03
            1292     86.1178E-03     13.5786E-03     85.0405E-03     331.107E-03    -164.808E-03    -166.299E-03    -163.260E-03     328.212E-03    -164.953E-03     74.4095E-03     400.281E-03     130.460E+06     115.671E+06     112.438E+06    -16.3487E+06    -16.3460E+06     115.567E+06     112.540E+06    -349.792E+03
            1293     86.3685E-03     14.4286E-03     85.1548E-03     330.942E-03    -164.708E-03    -166.234E-03    -163.294E-03     328.286E-03    -164.992E-03     70.2438E-03     400.167E-03     138.611E+06     131.937E+06     129.494E+06    -7.86744E+06    -7.86553E+06     129.539E+06     131.890E+06    -355.624E+03
            1294     85.8020E-03     846.477E-06     85.7978E-03     330.347E-03    -164.867E-03    -165.481E-03    -165.239E-03     330.341E-03    -165.103E-03     3.14142E-03     330.976E-03     175.683E+06    -175.639E+06    -183.549E+06    -355.134E+06    -181.976E+06    -355.130E+06    -177.217E+06    -311.776E+03
            1295     85.8165E-03     1.69661E-03     85.7997E-03     329.907E-03    -164.677E-03    -165.229E-03    -164.707E-03     329.886E-03    -165.179E-03     6.05014E-03     331.774E-03     166.012E+06    -156.363E+06    -174.242E+06    -330.416E+06    -174.247E+06    -330.411E+06    -156.363E+06    -381.131E+03
            1296     85.8445E-03     2.54454E-03     85.8068E-03     329.693E-03    -164.558E-03    -165.135E-03    -164.505E-03     329.640E-03    -165.135E-03     10.0398E-03     333.528E-03     154.767E+06    -128.459E+06    -164.243E+06    -297.627E+06    -164.253E+06    -297.618E+06    -128.459E+06     149.090E+03
            1297     85.8871E-03     3.39194E-03     85.8201E-03     329.579E-03    -164.444E-03    -165.134E-03    -164.335E-03     329.469E-03    -165.134E-03     14.5276E-03     336.017E-03     144.498E+06    -98.4103E+06    -152.193E+06    -261.800E+06    -152.223E+06    -261.770E+06    -98.4103E+06     203.970E+03
            1298     85.9433E-03     4.24144E-03     85.8385E-03     329.439E-03    -164.298E-03    -165.140E-03    -164.100E-03     329.240E-03    -165.140E-03     19.5641E-03     338.922E-03     136.499E+06    -68.7452E+06    -137.949E+06    -225.629E+06    -137.981E+06    -225.596E+06    -68.7452E+06     103.849E+03
            1299     86.0154E-03     5.09011E-03     85.8647E-03     329.468E-03    -164.331E-03    -165.137E-03    -164.010E-03     329.148E-03    -165.137E-03     25.0117E-03     342.154E-03     126.987E+06    -42.0959E+06    -124.054E+06    -187.978E+06    -124.067E+06    -187.965E+06    -42.0959E+06     260.598E+03
            1300     86.1016E-03     5.93819E-03     85.8966E-03     329.614E-03    -164.472E-03    -165.142E-03    -164.008E-03     329.150E-03    -165.142E-03     30.1475E-03     345.553E-03     118.295E+06    -18.5115E+06    -111.095E+06    -151.242E+06    -111.102E+06    -151.235E+06    -18.5115E+06     383.725E+03
            1301     86.2022E-03     6.78642E-03     85.9346E-03     329.549E-03    -164.409E-03    -165.140E-03    -163.807E-03     328.947E-03    -165.140E-03     34.4142E-03     348.647E-03     111.421E+06     1.99667E+06    -98.7212E+06    -117.217E+06    -98.7328E+06    -117.206E+06     1.99667E+06     258.315E+03
            1302     86.3167E-03     7.63560E-03     85.9783E-03     329.500E-03    -164.385E-03    -165.116E-03    -163.651E-03     328.767E-03    -165.116E-03     37.9847E-03     351.735E-03     104.851E+06     20.6499E+06    -75.8212E+06    -90.6541E+06    -86.2606E+06    -80.2147E+06     20.6499E+06     74.6622E+03
            1303     86.4459E-03     8.48548E-03     86.0285E-03     329.716E-03    -164.502E-03    -165.213E-03    -163.739E-03     328.831E-03    -165.092E-03     41.7253E-03     355.260E-03     101.037E+06     39.0054E+06    -38.8221E+06    -74.0159E+06    -73.9842E+06    -38.8538E+06     39.0054E+06     70.9551E+03
            1304     86.5880E-03     9.33179E-03     86.0837E-03     329.729E-03    -164.548E-03    -165.182E-03    -163.604E-03     328.665E-03    -165.060E-03     45.7701E-03     359.062E-03     105.743E+06     56.6223E+06     10.2764E+06    -62.0883E+06    -62.0581E+06     10.2461E+06     56.6223E+06    -291.906E+03
            1305     86.7402E-03     10.1811E-03     86.1406E-03     329.561E-03    -164.549E-03    -165.012E-03    -163.283E-03     328.296E-03    -165.012E-03     49.8916E-03     363.439E-03     121.494E+06     76.2703E+06     60.5376E+06    -51.8718E+06    -51.8542E+06     63.1344E+06     73.6558E+06     117.234E+03
            1306     86.9097E-03     11.0321E-03     86.2067E-03     329.615E-03    -164.639E-03    -164.976E-03    -163.212E-03     328.155E-03    -164.942E-03     53.5950E-03     369.055E-03     129.372E+06     92.2967E+06     80.3792E+06    -42.4791E+06    -42.4729E+06     92.2905E+06     80.3792E+06     571.964E+03
            1307     87.0899E-03     11.8810E-03     86.2757E-03     329.805E-03    -164.814E-03    -164.991E-03    -163.165E-03     328.068E-03    -164.903E-03     58.4181E-03     376.982E-03     125.919E+06     99.0585E+06     85.2085E+06    -33.1456E+06    -33.1404E+06     99.0533E+06     85.2085E+06    -75.9210E+03
            1308     87.2873E-03     12.7297E-03     86.3541E-03     330.003E-03    -164.913E-03    -165.090E-03    -163.193E-03     328.106E-03    -164.913E-03     61.1715E-03     383.907E-03     125.595E+06     104.761E+06     97.0985E+06    -24.4836E+06    -24.4813E+06     104.758E+06     97.0985E+06    -393.890E+03
            1309     87.4903E-03     13.5793E-03     86.4300E-03     331.336E-03    -164.946E-03    -166.390E-03    -163.472E-03     328.418E-03    -164.946E-03     74.7383E-03     400.552E-03     130.363E+06     115.653E+06     112.424E+06    -16.2669E+06    -16.2648E+06     115.537E+06     112.538E+06    -222.466E+03
            1310     87.7389E-03     14.4286E-03     86.5444E-03     331.042E-03    -164.727E-03    -166.315E-03    -163.375E-03     328.368E-03    -164.994E-03     70.4617E-03     400.204E-03     138.650E+06     131.501E+06     129.161E+06    -8.29267E+06    -8.29089E+06     129.159E+06     131.501E+06    -144.266E+03
            1311     87.1910E-03     850.253E-06     87.1869E-03     329.124E-03    -164.293E-03    -164.831E-03    -164.670E-03     329.118E-03    -164.448E-03     3.02713E-03     329.733E-03     176.095E+06    -174.415E+06    -181.922E+06    -354.128E+06    -180.356E+06    -354.116E+06    -175.992E+06     272.926E+03
            1312     87.2059E-03     1.69614E-03     87.1894E-03     329.934E-03    -164.772E-03    -165.163E-03    -165.142E-03     329.915E-03    -164.774E-03     5.81144E-03     331.777E-03     165.984E+06    -156.483E+06    -174.429E+06    -330.536E+06    -174.443E+06    -330.523E+06    -156.483E+06    -68.8991E+03
            1313     87.2338E-03     2.54417E-03     87.1967E-03     329.968E-03    -164.813E-03    -165.155E-03    -164.895E-03     329.917E-03    -165.022E-03     9.75161E-03     333.803E-03     155.166E+06    -128.854E+06    -164.177E+06    -298.304E+06    -164.188E+06    -298.292E+06    -128.854E+06    -8.22965E+03
            1314     87.2755E-03     3.39331E-03     87.2095E-03     329.686E-03    -164.564E-03    -165.122E-03    -164.456E-03     329.578E-03    -165.122E-03     14.4289E-03     336.151E-03     144.644E+06    -98.1073E+06    -151.291E+06    -261.497E+06    -151.322E+06    -261.466E+06    -98.1073E+06     169.896E+03
            1315     87.3314E-03     4.24059E-03     87.2283E-03     329.526E-03    -164.374E-03    -165.151E-03    -164.180E-03     329.331E-03    -165.151E-03     19.4112E-03     339.024E-03     136.783E+06    -68.8508E+06    -137.843E+06    -226.045E+06    -137.875E+06    -226.013E+06    -68.8508E+06     146.848E+03
            1316     87.4017E-03     5.08933E-03     87.2534E-03     329.388E-03    -164.239E-03    -165.149E-03    -163.927E-03     329.076E-03    -165.149E-03     24.6711E-03     342.089E-03     127.424E+06    -42.1904E+06    -124.413E+06    -188.541E+06    -124.433E+06    -188.521E+06    -42.1904E+06     695.941E+03
            1317     87.4884E-03     5.93863E-03     87.2866E-03     329.492E-03    -164.352E-03    -165.140E-03    -163.902E-03     329.042E-03    -165.140E-03     29.7154E-03     345.393E-03     118.491E+06    -18.1280E+06    -111.139E+06    -151.003E+06    -111.153E+06    -150.989E+06    -18.1280E+06     607.245E+03
            1318     87.5880E-03     6.78729E-03     87.3246E-03     329.776E-03    -164.632E-03    -165.145E-03    -164.039E-03     329.184E-03    -165.145E-03     34.1439E-03     348.840E-03     111.438E+06     2.43456E+06    -98.2221E+06    -116.887E+06    -98.2353E+06    -116.874E+06     2.43456E+06     33.0370E+03
            1319     87.7018E-03     7.63488E-03     87.3688E-03     329.738E-03    -164.594E-03    -165.144E-03    -163.838E-03     328.981E-03    -165.144E-03     38.5328E-03     351.974E-03     104.931E+06     21.1198E+06    -75.3555E+06    -90.3550E+06    -85.6139E+06    -80.0966E+06     21.1198E+06    -154.545E+03
            1320     87.8287E-03     8.48211E-03     87.4181E-03     329.418E-03    -164.312E-03    -165.106E-03    -163.380E-03     328.486E-03    -165.106E-03     42.7760E-03     354.978E-03     100.888E+06     39.0117E+06    -38.8786E+06    -73.7764E+06    -73.7506E+06    -38.9043E+06     39.0117E+06    -31.6788E+03
            1321     87.9689E-03     9.33440E-03     87.4723E-03     329.566E-03    -164.477E-03    -165.090E-03    -163.434E-03     328.480E-03    -165.046E-03     46.2376E-03     358.913E-03     106.376E+06     55.8388E+06     9.80719E+06    -63.4043E+06    -63.3811E+06     9.78400E+06     55.8388E+06     465.868E+03
            1322     88.1218E-03     10.1833E-03     87.5315E-03     329.894E-03    -164.840E-03    -165.054E-03    -163.647E-03     328.657E-03    -165.011E-03     49.3471E-03     363.866E-03     122.423E+06     75.8790E+06     60.8595E+06    -52.9163E+06    -52.9085E+06     63.0547E+06      73.676E+06     436.920E+03
            1323     88.2879E-03     11.0300E-03     87.5962E-03     329.638E-03    -164.680E-03    -164.959E-03    -163.260E-03     328.218E-03    -164.959E-03     52.8534E-03     369.234E-03     129.556E+06     92.3836E+06     80.7040E+06    -42.4492E+06    -42.4440E+06     92.3783E+06     80.7040E+06     51.5730E+03
            1324     88.4664E-03     11.8797E-03     87.6651E-03     329.642E-03    -164.691E-03    -164.952E-03    -163.003E-03     327.916E-03    -164.914E-03     58.2018E-03     376.676E-03     126.249E+06     99.3454E+06     85.2934E+06    -33.2698E+06    -33.2671E+06     99.3426E+06     85.2934E+06    -202.324E+03
            1325     88.6619E-03     12.7300E-03     87.7432E-03     329.916E-03    -164.916E-03    -165.000E-03    -163.110E-03     328.025E-03    -164.916E-03     61.0539E-03     383.611E-03     126.066E+06     104.851E+06      97.188E+06    -24.8651E+06    -24.8628E+06     104.849E+06      97.188E+06    -373.712E+03
            1326     88.8637E-03     13.5794E-03     87.8200E-03     331.252E-03    -164.944E-03    -166.308E-03    -163.414E-03     328.357E-03    -164.944E-03     74.4226E-03     400.309E-03     130.615E+06     115.455E+06     112.312E+06    -16.6746E+06    -16.6732E+06     115.398E+06     112.367E+06     55.2721E+03
            1327     89.1104E-03     14.4286E-03     87.9346E-03     331.033E-03    -164.725E-03    -166.308E-03    -163.380E-03     328.371E-03    -164.990E-03     70.3529E-03     400.095E-03     138.525E+06     131.384E+06     128.960E+06    -8.32343E+06    -8.32240E+06     128.959E+06     131.384E+06     20.5106E+03
            1328     88.5786E-03     847.739E-06     88.5745E-03     329.287E-03    -164.121E-03    -165.167E-03    -164.822E-03     329.283E-03    -164.461E-03     2.66863E-03     329.893E-03     175.648E+06    -175.675E+06    -182.432E+06    -354.576E+06    -181.804E+06    -354.566E+06    -176.312E+06     457.513E+03
            1329     88.5960E-03     1.69753E-03     88.5798E-03     329.747E-03    -164.605E-03    -165.142E-03    -164.926E-03     329.729E-03    -164.803E-03     5.55712E-03     331.578E-03     166.750E+06    -155.803E+06    -174.654E+06    -330.985E+06    -174.669E+06    -330.970E+06    -155.803E+06     553.406E+03
            1330     88.6233E-03     2.54475E-03     88.5868E-03     329.981E-03    -164.848E-03    -165.133E-03    -164.933E-03     329.933E-03    -165.000E-03     9.41550E-03     333.820E-03     155.791E+06    -128.457E+06    -164.063E+06    -298.716E+06    -164.075E+06    -298.705E+06    -128.457E+06     145.744E+03
            1331     88.6639E-03     3.39188E-03     88.5990E-03     329.720E-03    -164.606E-03    -165.114E-03    -164.499E-03     329.613E-03    -165.114E-03     14.2936E-03     336.179E-03     144.916E+06    -98.2868E+06    -151.352E+06    -261.891E+06    -151.366E+06    -261.877E+06    -98.2868E+06     542.197E+03
            1332     88.7194E-03     4.24143E-03     88.6180E-03     329.588E-03    -164.430E-03    -165.158E-03    -164.232E-03     329.390E-03    -165.158E-03     19.6059E-03     339.067E-03     137.205E+06    -68.4844E+06    -138.440E+06    -226.223E+06    -138.463E+06    -226.201E+06    -68.4844E+06     787.367E+03
            1333     88.7893E-03     5.08947E-03     88.6433E-03     329.626E-03    -164.450E-03    -165.176E-03    -164.133E-03     329.309E-03    -165.176E-03     24.8868E-03     342.322E-03     128.198E+06    -41.8268E+06    -124.637E+06    -189.107E+06    -124.669E+06    -189.075E+06    -41.8268E+06     238.802E+03
            1334     88.8739E-03     5.93764E-03     88.6754E-03     329.506E-03    -164.332E-03    -165.174E-03    -163.876E-03     329.050E-03    -165.174E-03     29.8942E-03     345.376E-03     118.545E+06    -18.0277E+06    -110.461E+06    -151.180E+06    -110.498E+06    -151.143E+06    -18.0277E+06     298.770E+03
            1335     88.9745E-03     6.78612E-03     88.7153E-03     329.421E-03    -164.271E-03    -165.150E-03    -163.662E-03     328.812E-03    -165.150E-03     34.5618E-03     348.437E-03     111.319E+06     2.89392E+06    -97.3430E+06    -116.405E+06    -97.4216E+06    -116.326E+06     2.89392E+06     479.404E+03
            1336     89.0861E-03     7.63551E-03     88.7583E-03     329.463E-03    -164.351E-03    -165.112E-03    -163.584E-03     328.697E-03    -165.112E-03     38.7814E-03     351.664E-03     105.117E+06     21.3879E+06    -75.2017E+06    -90.2971E+06    -85.7528E+06    -79.7460E+06     21.3879E+06     254.032E+03
            1337     89.2120E-03     8.48654E-03     88.8074E-03     329.758E-03    -164.534E-03    -165.224E-03    -163.758E-03     328.840E-03    -165.083E-03     42.4780E-03     355.295E-03     101.464E+06     38.6174E+06    -39.3270E+06    -74.9193E+06    -74.9052E+06    -39.3410E+06     38.6174E+06     619.394E+03
            1338     89.3504E-03     9.33259E-03     88.8616E-03     329.958E-03    -164.710E-03    -165.247E-03    -163.836E-03     328.899E-03    -165.063E-03     45.6790E-03     359.334E-03     106.720E+06     56.0303E+06     9.55649E+06    -63.7703E+06    -63.7562E+06     9.54242E+06     56.0303E+06     609.620E+03
            1339     89.5044E-03     10.1804E-03     88.9235E-03     329.547E-03    -164.474E-03    -165.073E-03    -163.287E-03     328.317E-03    -165.030E-03     49.1823E-03     363.632E-03     122.159E+06     76.3706E+06     61.1040E+06    -52.2119E+06    -52.2070E+06     63.1415E+06     74.3282E+06     100.195E+03
            1340     89.6660E-03     11.0312E-03     88.9849E-03     329.330E-03    -164.382E-03    -164.948E-03    -162.919E-03     327.867E-03    -164.948E-03     53.6037E-03     369.062E-03     128.989E+06     92.4021E+06     81.1962E+06    -41.6631E+06    -41.6559E+06     92.3949E+06     81.1962E+06    -97.5920E+03
            1341     89.8436E-03     11.8808E-03     89.0546E-03     329.917E-03    -164.725E-03    -165.192E-03    -163.229E-03     328.125E-03    -164.897E-03     59.3622E-03     376.993E-03     125.518E+06     99.1073E+06     85.5820E+06    -32.5560E+06    -32.5498E+06     99.1011E+06     85.5820E+06     162.887E+03
            1342     90.0371E-03     12.7294E-03     89.1327E-03     330.281E-03    -164.917E-03    -165.364E-03    -163.453E-03     328.370E-03    -164.917E-03     61.4301E-03     384.031E-03     126.078E+06     105.057E+06     97.4344E+06    -24.6547E+06    -24.6505E+06     105.053E+06     97.4344E+06     237.361E+03
            1343     90.2373E-03     13.5788E-03     89.2098E-03     331.203E-03    -164.954E-03    -166.249E-03    -163.362E-03     328.316E-03    -164.954E-03     74.2676E-03     400.524E-03     130.812E+06     115.580E+06     112.088E+06    -16.9144E+06    -16.9099E+06     115.344E+06     112.319E+06    -257.277E+03
            1344     90.4817E-03     14.4288E-03     89.3238E-03     330.887E-03    -164.749E-03    -166.138E-03    -163.229E-03     328.224E-03    -164.995E-03     70.3111E-03     400.164E-03     138.329E+06     131.233E+06     128.580E+06    -8.39161E+06    -8.38829E+06     128.576E+06     131.233E+06    -271.186E+03
            1345     89.9663E-03     847.909E-06     89.9623E-03     330.214E-03    -164.727E-03    -165.487E-03    -165.292E-03     330.208E-03    -164.915E-03     2.70205E-03     330.821E-03     176.629E+06    -176.192E+06    -182.426E+06    -355.817E+06    -181.801E+06    -355.804E+06    -176.829E+06     164.496E+03
            1346     89.9850E-03     1.69543E-03     89.9690E-03     329.767E-03    -164.654E-03    -165.113E-03    -164.637E-03     329.749E-03    -165.113E-03     5.76446E-03     331.607E-03     167.378E+06    -156.417E+06    -174.825E+06    -332.073E+06    -174.832E+06    -332.066E+06    -156.417E+06     317.663E+03
            1347     90.0127E-03     2.54433E-03     89.9767E-03     329.605E-03    -164.529E-03    -165.076E-03    -164.483E-03     329.559E-03    -165.076E-03     9.22905E-03     333.455E-03     156.475E+06    -128.267E+06    -164.502E+06    -299.344E+06    -164.512E+06    -299.333E+06    -128.267E+06     1.13818E+06
            1348     90.0528E-03     3.39334E-03     89.9889E-03     329.597E-03    -164.501E-03    -165.096E-03    -164.393E-03     329.489E-03    -165.096E-03     14.3238E-03     336.035E-03     145.696E+06    -97.5149E+06    -151.915E+06    -262.300E+06    -151.921E+06    -262.294E+06    -97.5149E+06     780.520E+03
            1349     90.1070E-03     4.24068E-03     90.0071E-03     329.659E-03    -164.521E-03    -165.138E-03    -164.318E-03     329.456E-03    -165.138E-03     19.8307E-03     339.098E-03     138.338E+06    -67.6858E+06    -137.549E+06    -226.708E+06    -137.562E+06    -226.695E+06    -67.6858E+06     689.206E+03
            1350     90.1772E-03     5.08957E-03     90.0334E-03     329.695E-03    -164.524E-03    -165.171E-03    -164.203E-03     329.374E-03    -165.171E-03     25.0498E-03     342.346E-03     128.793E+06    -41.1230E+06    -123.599E+06    -189.112E+06    -123.662E+06    -189.049E+06    -41.1230E+06     794.209E+03
            1351     90.2612E-03     5.93786E-03     90.0657E-03     329.474E-03    -164.302E-03    -165.171E-03    -163.843E-03     329.015E-03    -165.171E-03     29.9856E-03     345.361E-03     118.960E+06    -17.8735E+06    -110.364E+06    -151.572E+06    -110.443E+06    -151.493E+06    -17.8735E+06     475.087E+03
            1352     90.3586E-03     6.78741E-03     90.1033E-03     329.404E-03    -164.259E-03    -165.144E-03    -163.653E-03     328.797E-03    -165.144E-03     34.5140E-03     348.421E-03     111.644E+06     2.81490E+06    -97.5255E+06    -116.936E+06    -97.6377E+06    -116.824E+06     2.81490E+06     697.417E+03
            1353     90.4712E-03     7.63630E-03     90.1483E-03     329.796E-03    -164.622E-03    -165.174E-03    -163.942E-03     329.070E-03    -165.128E-03     37.8233E-03     351.995E-03     105.550E+06     21.6320E+06    -75.4902E+06    -90.4613E+06    -85.8266E+06    -80.1248E+06     21.6320E+06     840.584E+03
            1354     90.5949E-03     8.48262E-03     90.1969E-03     329.926E-03    -164.613E-03    -165.313E-03    -163.914E-03     329.041E-03    -165.127E-03     41.7188E-03     355.449E-03     101.644E+06     39.8125E+06    -39.1183E+06    -73.7377E+06    -73.7264E+06    -39.1296E+06     39.8125E+06     439.409E+03
            1355     90.7360E-03     9.33227E-03     90.2548E-03     329.373E-03    -164.150E-03    -165.223E-03    -163.205E-03     328.287E-03    -165.082E-03     46.1986E-03     358.717E-03     106.135E+06     56.9859E+06     9.73316E+06    -62.2278E+06    -62.2209E+06     9.72626E+06     56.9859E+06     466.464E+03
            1356     90.8821E-03     10.1828E-03     90.3098E-03     329.074E-03    -164.078E-03    -164.996E-03    -162.801E-03     327.798E-03    -164.996E-03     50.0779E-03     363.103E-03     122.123E+06     76.8314E+06     61.0133E+06    -51.9204E+06    -51.9124E+06     63.2793E+06     74.5574E+06     318.378E+03
            1357     91.0461E-03     11.0321E-03     90.3752E-03     329.528E-03    -164.511E-03    -165.017E-03    -163.170E-03     328.077E-03    -164.907E-03     53.4489E-03     369.076E-03     129.327E+06     92.4140E+06     81.4642E+06    -41.9070E+06    -41.8980E+06     92.4051E+06     81.4642E+06     90.0695E+03
            1358     91.2203E-03     11.8811E-03     90.4433E-03     330.156E-03    -164.841E-03    -165.315E-03    -163.523E-03     328.402E-03    -164.878E-03     58.7279E-03     377.259E-03     125.586E+06     98.4408E+06     85.4928E+06    -33.0583E+06    -33.0497E+06     98.4321E+06     85.4928E+06     252.899E+03
            1359     91.4156E-03     12.7301E-03     90.5249E-03     330.265E-03    -164.905E-03    -165.360E-03    -163.447E-03     328.357E-03    -164.910E-03     61.3583E-03     384.106E-03     126.065E+06     104.932E+06     97.4142E+06    -24.7196E+06    -24.7158E+06     104.928E+06     97.4142E+06     253.008E+03
            1360     91.6101E-03     13.5788E-03     90.5982E-03     331.345E-03    -164.948E-03    -166.397E-03    -163.491E-03     328.444E-03    -164.953E-03     74.4413E-03     400.733E-03     130.629E+06     116.240E+06     112.661E+06    -16.1148E+06    -16.1090E+06     115.901E+06     112.994E+06    -11.8582E+03
            1361     91.8539E-03     14.4285E-03     90.7136E-03     331.080E-03    -164.757E-03    -166.323E-03    -163.394E-03     328.396E-03    -165.002E-03     70.6143E-03     400.416E-03     137.951E+06     131.484E+06     128.553E+06    -7.89568E+06    -7.89062E+06     128.548E+06     131.484E+06    -58.8653E+03
            1362     91.3587E-03     847.805E-06     91.3548E-03     330.586E-03    -165.051E-03    -165.535E-03    -165.331E-03     330.581E-03    -165.249E-03     2.55632E-03     331.203E-03     177.963E+06    -176.817E+06    -182.409E+06    -357.474E+06     -182.09E+06    -357.433E+06    -177.178E+06     186.517E+03
            1363     91.3736E-03     1.69582E-03     91.3579E-03     329.879E-03    -164.624E-03    -165.255E-03    -164.605E-03     329.860E-03    -165.255E-03     5.90750E-03     331.740E-03     168.475E+06    -156.717E+06    -175.052E+06    -333.418E+06    -175.064E+06    -333.406E+06    -156.717E+06     559.799E+03
            1364     91.4011E-03     2.54428E-03     91.3657E-03     329.512E-03    -164.374E-03    -165.138E-03    -164.325E-03     329.463E-03    -165.138E-03     9.63147E-03     333.358E-03     157.059E+06    -128.063E+06    -164.273E+06    -299.763E+06    -164.277E+06    -299.759E+06    -128.063E+06     430.145E+03
            1365     91.4409E-03     3.39248E-03     91.3779E-03     329.635E-03    -164.515E-03    -165.120E-03    -164.413E-03     329.532E-03    -165.120E-03     14.0254E-03     336.061E-03     146.330E+06    -97.3363E+06    -151.290E+06    -262.693E+06    -151.295E+06    -262.688E+06    -97.3363E+06     598.524E+03
            1366     91.4957E-03     4.24174E-03     91.3973E-03     329.601E-03    -164.448E-03    -165.153E-03    -164.253E-03     329.406E-03    -165.153E-03     19.3930E-03     339.030E-03     139.010E+06    -67.9701E+06    -137.627E+06    -227.722E+06    -137.641E+06    -227.707E+06    -67.9701E+06     731.635E+03
            1367     91.5648E-03     5.08931E-03     91.4233E-03     329.437E-03    -164.278E-03    -165.159E-03    -163.957E-03     329.116E-03    -165.159E-03     25.0025E-03     342.089E-03     129.345E+06    -40.8360E+06    -123.093E+06    -189.519E+06    -123.155E+06    -189.457E+06    -40.8360E+06     878.089E+03
            1368     91.6474E-03     5.93840E-03     91.4548E-03     329.690E-03    -164.483E-03    -165.207E-03    -164.078E-03     329.237E-03    -165.159E-03     29.8227E-03     345.578E-03     119.420E+06    -16.9497E+06    -109.370E+06    -151.265E+06    -109.495E+06    -151.140E+06    -16.9497E+06     869.969E+03
            1369     91.7445E-03     6.78631E-03     91.4932E-03     329.951E-03    -164.721E-03    -165.229E-03    -164.178E-03     329.360E-03    -165.182E-03     34.0953E-03     348.959E-03     112.540E+06     3.27428E+06    -96.9588E+06    -118.097E+06    -97.0667E+06    -117.989E+06     3.27428E+06     820.198E+03
            1370     91.8566E-03     7.63413E-03     91.5388E-03     329.815E-03    -164.582E-03    -165.233E-03    -163.871E-03     329.059E-03    -165.188E-03     38.5506E-03     351.973E-03     106.014E+06     22.6306E+06    -74.1649E+06    -90.5380E+06    -84.2943E+06    -80.4086E+06     22.6306E+06     866.773E+03
            1371     91.9808E-03     8.48379E-03     91.5887E-03     329.284E-03    -164.098E-03    -165.185E-03    -163.219E-03     328.359E-03    -165.140E-03     42.6086E-03     354.840E-03     101.379E+06     40.4064E+06    -38.9480E+06    -72.7558E+06    -72.7172E+06    -38.9866E+06     40.4064E+06     940.773E+03
            1372     92.1143E-03     9.33363E-03     91.6402E-03     328.965E-03    -163.921E-03    -165.043E-03    -162.834E-03     327.877E-03    -165.043E-03     46.1985E-03     358.328E-03     106.217E+06     57.1353E+06     9.06126E+06    -62.1694E+06    -62.1509E+06      9.0427E+06     57.1353E+06     839.140E+03
            1373     92.2644E-03     10.1831E-03     91.7008E-03     329.482E-03    -164.503E-03    -164.979E-03    -163.278E-03     328.242E-03    -164.965E-03     49.4114E-03     363.407E-03     122.335E+06     77.5258E+06     61.3678E+06    -51.5602E+06    -51.5491E+06     63.7201E+06     75.1623E+06      603.38E+03
            1374     92.4253E-03     11.0315E-03     91.7646E-03     329.993E-03    -164.908E-03    -165.085E-03    -163.667E-03     328.583E-03    -164.916E-03     52.7363E-03     369.473E-03     129.504E+06     92.2283E+06     81.5679E+06    -42.1625E+06    -42.1520E+06     92.2177E+06     81.5679E+06      715.24E+03
            1375     92.5999E-03     11.8799E-03     91.8347E-03     330.090E-03    -164.905E-03    -165.185E-03    -163.463E-03     328.367E-03    -164.905E-03     58.2127E-03     377.162E-03     126.176E+06     98.7270E+06     85.7330E+06    -33.4031E+06    -33.3988E+06     98.7227E+06     85.7330E+06     373.780E+03
            1376     92.7898E-03     12.7295E-03     91.9125E-03     329.954E-03    -164.903E-03    -165.051E-03    -163.156E-03     328.081E-03    -164.925E-03     60.7685E-03     383.687E-03     126.086E+06     105.124E+06     97.8701E+06    -24.4182E+06    -24.4173E+06     105.123E+06     97.8701E+06    -337.092E+03
            1377     92.9865E-03     13.5799E-03     91.9895E-03     331.264E-03    -164.935E-03    -166.329E-03    -163.442E-03     328.399E-03    -164.957E-03     74.0000E-03     400.351E-03     130.244E+06     115.738E+06     112.983E+06    -15.8437E+06    -15.8408E+06     115.536E+06     113.181E+06     88.3412E+03
            1378     93.2265E-03     14.4283E-03     92.1032E-03     331.062E-03    -164.687E-03    -166.375E-03    -163.397E-03     328.400E-03    -165.003E-03     70.4329E-03     400.223E-03     137.930E+06     131.341E+06     128.443E+06    -7.99886E+06    -7.99555E+06     128.440E+06     131.341E+06     471.080E+03
            1379     92.7481E-03     847.175E-06     92.7442E-03     330.239E-03    -164.840E-03    -165.399E-03    -165.133E-03     330.234E-03    -165.101E-03     2.81368E-03     330.864E-03     179.206E+06    -176.170E+06    -182.638E+06    -358.479E+06    -182.330E+06    -358.426E+06    -176.531E+06     339.819E+03
            1380     92.7630E-03     1.69592E-03     92.7475E-03     330.052E-03    -164.798E-03    -165.254E-03    -164.865E-03     330.035E-03    -165.169E-03     5.70664E-03     331.914E-03     169.755E+06    -156.255E+06    -174.629E+06    -334.292E+06    -174.642E+06    -334.279E+06    -156.255E+06     423.830E+03
            1381     92.7895E-03     2.54435E-03     92.7546E-03     329.881E-03    -164.699E-03    -165.182E-03    -164.651E-03     329.834E-03    -165.182E-03     9.43143E-03     333.723E-03     157.597E+06    -128.154E+06    -163.763E+06    -300.191E+06    -163.764E+06    -300.190E+06    -128.154E+06     281.187E+03
            1382     92.8304E-03     3.39261E-03     92.7684E-03     329.733E-03    -164.531E-03    -165.202E-03    -164.425E-03     329.627E-03    -165.202E-03     14.2334E-03     336.184E-03     147.120E+06    -97.5630E+06    -151.307E+06    -263.707E+06    -151.311E+06    -263.703E+06    -97.5630E+06     511.651E+03
            1383     92.8835E-03     4.23981E-03     92.7867E-03     329.597E-03    -164.384E-03    -165.213E-03    -164.193E-03     329.406E-03    -165.213E-03     19.2441E-03     339.066E-03     139.055E+06    -68.0928E+06    -137.381E+06    -227.862E+06    -137.411E+06    -227.832E+06    -68.0928E+06     266.198E+03
            1384     92.9513E-03     5.09003E-03     92.8118E-03     329.531E-03    -164.323E-03    -165.208E-03    -164.019E-03     329.227E-03    -165.208E-03     24.3301E-03     342.185E-03     129.446E+06    -41.3949E+06    -123.191E+06    -190.249E+06    -123.249E+06    -190.192E+06    -41.3949E+06     179.891E+03
            1385     93.0349E-03     5.93824E-03     92.8452E-03     329.621E-03    -164.373E-03    -165.248E-03    -163.970E-03     329.170E-03    -165.200E-03     29.7003E-03     345.468E-03     119.994E+06    -17.5323E+06    -110.003E+06    -152.571E+06    -110.099E+06    -152.475E+06    -17.5323E+06     884.758E+03
            1386     93.1325E-03     6.78593E-03     92.8850E-03     329.630E-03    -164.391E-03    -165.239E-03    -163.816E-03     329.007E-03    -165.191E-03     34.9674E-03     348.635E-03     113.159E+06     3.96127E+06    -96.6508E+06    -118.186E+06    -96.7685E+06    -118.068E+06     3.96127E+06     1.12215E+06
            1387     93.2405E-03     7.63521E-03     92.9274E-03     329.320E-03    -164.173E-03    -165.146E-03    -163.384E-03     328.530E-03    -165.146E-03     39.3985E-03     351.501E-03     106.373E+06     22.8009E+06    -74.3820E+06    -90.7420E+06    -84.3050E+06    -80.8190E+06     22.8009E+06     975.557E+03
            1388     93.3637E-03     8.48471E-03     92.9773E-03     329.304E-03    -164.202E-03    -165.102E-03    -163.312E-03     328.393E-03    -165.080E-03     42.3551E-03     354.868E-03     101.540E+06     40.1796E+06    -40.1228E+06    -72.9733E+06    -72.9318E+06    -40.1642E+06     40.1796E+06     1.03739E+06
            1389     93.4964E-03     9.33364E-03     93.0294E-03     329.800E-03    -164.682E-03    -165.118E-03    -163.710E-03     328.744E-03    -165.034E-03     45.5989E-03     359.110E-03     106.447E+06     57.8029E+06     9.25231E+06    -61.5901E+06    -61.5534E+06     9.21561E+06     57.8029E+06     1.31587E+06
            1390     93.6465E-03     10.1820E-03     93.0913E-03     329.842E-03    -164.757E-03    -165.085E-03    -163.609E-03     328.617E-03    -165.008E-03     49.1435E-03     363.777E-03     122.256E+06     76.9109E+06     61.7605E+06    -51.6396E+06    -51.6082E+06     63.2421E+06     75.3977E+06     1.60227E+06
            1391     93.8057E-03     11.0308E-03     93.1549E-03     329.641E-03    -164.627E-03    -165.014E-03    -163.265E-03     328.219E-03    -164.955E-03     52.8791E-03     369.300E-03     129.465E+06     92.0118E+06     81.8630E+06    -42.0651E+06    -42.0511E+06     91.9978E+06     81.8630E+06     1.31743E+06
            1392     93.9785E-03     11.8804E-03     93.2245E-03     329.901E-03    -164.786E-03    -165.116E-03    -163.229E-03     328.146E-03    -164.918E-03     58.7353E-03     377.033E-03     126.664E+06     99.9448E+06      86.712E+06    -32.7655E+06    -32.7605E+06     99.9398E+06      86.712E+06     630.583E+03
            1393     94.1664E-03     12.7293E-03     93.3021E-03     330.132E-03    -164.915E-03    -165.218E-03    -163.285E-03     328.216E-03    -164.931E-03     61.4820E-03     383.899E-03     126.747E+06     105.471E+06     98.1844E+06    -24.7496E+06    -24.7471E+06     105.469E+06     98.1844E+06     197.303E+03
            1394     94.3609E-03     13.5780E-03     93.3789E-03     331.270E-03    -164.946E-03    -166.325E-03    -163.405E-03     328.368E-03    -164.963E-03     74.5491E-03     400.425E-03     130.424E+06     114.996E+06     111.645E+06    -17.0548E+06    -17.0530E+06     114.333E+06     112.306E+06     175.869E+03
            1395     94.5998E-03     14.4286E-03     93.4930E-03     330.882E-03    -164.650E-03    -166.231E-03    -163.218E-03     328.221E-03    -165.003E-03     70.3073E-03     400.026E-03     138.052E+06     130.992E+06     127.959E+06    -8.54203E+06    -8.54020E+06     127.957E+06     130.992E+06     175.180E+03
            1396     94.1378E-03     849.446E-06     94.1340E-03     329.748E-03    -164.348E-03    -165.400E-03    -164.534E-03     329.742E-03    -165.209E-03     2.68026E-03     330.368E-03     180.248E+06    -175.451E+06    -182.147E+06    -358.922E+06    -181.225E+06    -358.888E+06    -176.406E+06     563.840E+03
            1397     94.1530E-03     1.69621E-03     94.1377E-03     330.255E-03    -165.027E-03    -165.227E-03    -165.199E-03     330.236E-03    -165.037E-03     5.81741E-03     332.105E-03     169.950E+06    -156.134E+06    -174.328E+06    -334.271E+06    -174.336E+06    -334.262E+06    -156.134E+06     163.528E+03
            1398     94.1794E-03     2.54342E-03     94.1450E-03     330.111E-03    -164.913E-03    -165.198E-03    -164.862E-03     330.060E-03    -165.198E-03     9.73376E-03     333.976E-03     158.523E+06    -128.473E+06    -163.797E+06    -301.396E+06    -163.800E+06    -301.394E+06    -128.473E+06     84.3611E+03
            1399     94.2183E-03     3.39189E-03     94.1573E-03     329.763E-03    -164.521E-03    -165.243E-03    -164.412E-03     329.655E-03    -165.243E-03     14.4252E-03     336.245E-03     148.092E+06    -97.5185E+06    -150.410E+06    -264.504E+06    -150.416E+06    -264.498E+06    -97.5185E+06     117.000E+03
            1400     94.2723E-03     4.24170E-03     94.1768E-03     329.721E-03    -164.471E-03    -165.250E-03    -164.273E-03     329.523E-03    -165.250E-03     19.5602E-03     339.197E-03     139.438E+06    -68.0474E+06    -136.904E+06    -228.150E+06    -136.974E+06    -228.080E+06    -68.0474E+06     500.938E+03
            1401     94.3393E-03     5.08793E-03     94.2020E-03     329.710E-03    -164.456E-03    -165.255E-03    -164.133E-03     329.388E-03    -165.255E-03     25.0369E-03     342.391E-03     129.928E+06    -41.8537E+06    -124.192E+06    -191.241E+06    -124.281E+06    -191.152E+06    -41.8537E+06     830.253E+03
            1402     94.4217E-03     5.93664E-03     94.2348E-03     329.272E-03    -164.047E-03    -165.225E-03    -163.580E-03     328.805E-03    -165.225E-03     30.2176E-03     345.180E-03     120.914E+06    -17.5353E+06    -110.371E+06    -153.760E+06    -110.406E+06    -153.725E+06    -17.5353E+06     622.658E+03
            1403     94.5166E-03     6.78761E-03     94.2726E-03     329.071E-03    -163.917E-03    -165.154E-03    -163.304E-03     328.457E-03    -165.154E-03     34.6923E-03     348.104E-03     113.310E+06     3.72743E+06    -96.8836E+06    -118.545E+06    -96.9510E+06    -118.478E+06     3.72743E+06     760.189E+03
            1404     94.6268E-03     7.63641E-03     94.3182E-03     329.416E-03    -164.320E-03    -165.096E-03    -163.574E-03     328.670E-03    -165.096E-03     38.3088E-03     351.577E-03     106.700E+06     22.7453E+06    -75.3270E+06    -90.7660E+06    -84.8364E+06    -81.2565E+06     22.7453E+06     953.954E+03
            1405     94.7460E-03     8.48494E-03     94.3653E-03     329.990E-03    -164.831E-03    -165.159E-03    -164.020E-03     329.102E-03    -165.082E-03     41.8471E-03     355.496E-03     102.173E+06     40.3617E+06    -40.9238E+06    -73.2889E+06    -73.2494E+06    -40.9633E+06     40.3617E+06     1.02663E+06
            1406     94.8825E-03     9.33278E-03     94.4224E-03     330.101E-03    -164.882E-03    -165.220E-03    -163.976E-03     329.055E-03    -165.079E-03     45.4421E-03     359.404E-03     106.627E+06     57.0683E+06     7.68676E+06    -62.6705E+06    -62.6244E+06     7.64064E+06     57.0683E+06     1.64127E+06
            1407     95.0271E-03     10.1811E-03     94.4801E-03     329.582E-03    -164.467E-03    -165.114E-03    -163.296E-03     328.348E-03    -165.052E-03     49.2673E-03     363.543E-03     122.118E+06     76.8828E+06     61.7257E+06    -51.4385E+06    -51.3996E+06     62.6954E+06     75.8741E+06     1.96934E+06
            1408     95.1862E-03     11.0310E-03     94.5449E-03     329.408E-03    -164.436E-03    -164.972E-03    -163.002E-03     327.974E-03    -164.972E-03     53.1227E-03     369.023E-03     129.349E+06     92.7510E+06     82.9842E+06    -41.0168E+06    -40.9958E+06     92.7300E+06     82.9842E+06     1.64728E+06
            1409     95.3559E-03     11.8806E-03     94.6129E-03     329.687E-03    -164.681E-03    -165.006E-03    -163.041E-03     327.955E-03    -164.914E-03     58.3193E-03     376.779E-03     126.428E+06     100.024E+06     86.7854E+06    -32.4465E+06    -32.4348E+06     100.013E+06     86.7854E+06     1.20306E+06
            1410     95.5449E-03     12.7302E-03     94.6931E-03     329.985E-03    -164.834E-03    -165.151E-03    -163.148E-03     328.066E-03    -164.918E-03     61.5282E-03     383.743E-03     126.361E+06     105.291E+06     98.3460E+06    -24.3844E+06    -24.3771E+06     105.283E+06     98.3460E+06     948.869E+03
            1411     95.7363E-03     13.5799E-03     94.7683E-03     331.358E-03    -164.950E-03    -166.408E-03    -163.496E-03     328.446E-03    -164.950E-03     74.7241E-03     400.548E-03     130.023E+06     115.403E+06     111.965E+06    -16.2937E+06    -16.2896E+06     114.424E+06     112.939E+06     653.234E+03
            1412     95.9736E-03     14.4284E-03     94.8829E-03     331.006E-03    -164.692E-03    -166.314E-03    -163.346E-03     328.344E-03    -164.998E-03     70.3612E-03     400.096E-03     137.918E+06     131.589E+06     128.227E+06    -7.97351E+06    -7.97215E+06     128.225E+06     131.589E+06     163.071E+03
            1413     95.5273E-03     847.394E-06     95.5235E-03     329.908E-03    -163.913E-03    -165.995E-03    -164.976E-03     329.902E-03    -164.926E-03     3.36646E-03     330.533E-03     180.061E+06    -176.358E+06    -181.514E+06    -358.932E+06    -180.586E+06    -358.905E+06    -177.312E+06    -1.22989E+06
            1414     95.5428E-03     1.69621E-03     95.5278E-03     329.890E-03    -164.758E-03    -165.132E-03    -164.845E-03     329.870E-03    -165.026E-03     5.91326E-03     331.739E-03     170.963E+06    -156.696E+06    -173.580E+06    -335.239E+06    -173.599E+06    -335.219E+06    -156.696E+06    -147.382E+03
            1415     95.5690E-03     2.54483E-03     95.5351E-03     330.023E-03    -164.906E-03    -165.116E-03    -164.855E-03     329.971E-03    -165.116E-03     9.86431E-03     333.875E-03     159.183E+06    -127.947E+06    -163.392E+06    -301.590E+06    -163.395E+06    -301.588E+06    -127.947E+06     109.721E+03
            1416     95.6077E-03     3.39246E-03     95.5475E-03     329.911E-03    -164.712E-03    -165.200E-03    -164.601E-03     329.800E-03    -165.200E-03     14.5752E-03     336.392E-03     148.534E+06    -98.3102E+06    -151.406E+06    -265.788E+06    -151.422E+06    -265.773E+06    -98.3102E+06     344.296E+03
            1417     95.6598E-03     4.23959E-03     95.5658E-03     329.623E-03    -164.392E-03    -165.231E-03    -164.187E-03     329.419E-03    -165.231E-03     19.9071E-03     339.146E-03     140.279E+06    -68.7267E+06    -138.199E+06    -229.820E+06    -138.270E+06    -229.749E+06    -68.7267E+06     993.085E+03
            1418     95.7281E-03     5.09015E-03     95.5926E-03     329.432E-03    -164.216E-03    -165.215E-03    -163.889E-03     329.104E-03    -165.215E-03     25.2612E-03     342.173E-03     130.705E+06    -41.0046E+06    -123.768E+06    -191.295E+06    -123.839E+06    -191.224E+06    -41.0046E+06     890.826E+03
            1419     95.8074E-03     5.93897E-03     95.6232E-03     329.515E-03    -164.326E-03    -165.190E-03    -163.866E-03     329.055E-03    -165.190E-03     30.0174E-03     345.457E-03     121.469E+06    -17.1332E+06    -109.966E+06    -154.160E+06    -109.991E+06    -154.135E+06    -17.1332E+06     569.347E+03
            1420     95.9028E-03     6.78605E-03     95.6624E-03     329.573E-03    -164.402E-03    -165.172E-03    -163.810E-03     328.981E-03    -165.172E-03     34.1237E-03     348.643E-03     113.888E+06     3.33526E+06    -97.2687E+06    -119.814E+06    -97.3259E+06    -119.757E+06     3.33526E+06     811.346E+03
            1421     96.0105E-03     7.63537E-03     95.7064E-03     329.764E-03    -164.605E-03    -165.158E-03    -163.876E-03     329.034E-03    -165.158E-03     37.8964E-03     351.925E-03     106.956E+06     22.5314E+06    -75.8647E+06    -91.2202E+06    -85.0930E+06    -81.9919E+06     22.5314E+06     1.02651E+06
            1422     96.1327E-03     8.48354E-03     95.7577E-03     329.939E-03    -164.732E-03    -165.206E-03    -163.898E-03     329.048E-03    -165.150E-03     41.8855E-03     355.438E-03     102.711E+06     40.2648E+06    -41.7114E+06    -73.8754E+06    -73.8096E+06    -41.7772E+06     40.2648E+06     1.41324E+06
            1423     96.2652E-03     9.33203E-03     95.8118E-03     329.608E-03    -164.438E-03    -165.170E-03    -163.437E-03     328.550E-03    -165.113E-03     45.6548E-03     358.997E-03     106.544E+06     57.3478E+06     6.55699E+06    -62.6496E+06    -62.6091E+06     6.51650E+06     57.3478E+06     1.40929E+06
            1424     96.4090E-03     10.1821E-03     95.8699E-03     329.391E-03    -164.343E-03    -165.049E-03    -163.100E-03     328.149E-03    -165.049E-03     49.4334E-03     363.339E-03     121.366E+06     76.7084E+06     60.6302E+06    -51.1102E+06    -51.0871E+06     61.5137E+06     75.8019E+06     1.58068E+06
            1425     96.5660E-03     11.0310E-03     95.9339E-03     329.576E-03    -164.609E-03    -164.967E-03    -163.163E-03     328.130E-03    -164.967E-03     53.3575E-03     369.073E-03     129.414E+06     92.6234E+06     83.1050E+06    -41.1041E+06    -41.0743E+06     92.5936E+06     83.1050E+06     1.98484E+06
            1426     96.7358E-03     11.8797E-03     96.0036E-03     329.838E-03    -164.771E-03    -165.068E-03    -163.191E-03     328.112E-03    -164.921E-03     58.2580E-03     376.881E-03     126.854E+06     100.408E+06     87.3344E+06    -32.4247E+06    -32.4037E+06     100.387E+06     87.3344E+06     1.64490E+06
            1427     96.9196E-03     12.7296E-03     96.0800E-03     329.926E-03    -164.843E-03    -165.083E-03    -163.098E-03     328.028E-03    -164.929E-03     61.1852E-03     383.696E-03     126.278E+06     105.673E+06     99.1120E+06    -23.7403E+06    -23.7222E+06     105.655E+06     99.1120E+06     1.49359E+06
            1428     97.1141E-03     13.5789E-03     96.1601E-03     331.100E-03    -164.951E-03    -166.149E-03    -163.284E-03     328.238E-03    -164.954E-03     74.1198E-03     400.237E-03     130.368E+06     115.802E+06     113.018E+06    -15.9287E+06    -15.9173E+06     115.106E+06     113.702E+06     1.05866E+06
            1429     97.3466E-03     14.4288E-03     96.2713E-03     330.875E-03    -164.695E-03    -166.180E-03    -163.254E-03     328.248E-03    -164.993E-03     70.0400E-03     399.859E-03     138.391E+06     131.936E+06     128.409E+06    -8.17253E+06    -8.17092E+06     128.408E+06     131.936E+06     425.096E+03
            1430     96.9153E-03     847.901E-06     96.9116E-03     330.121E-03    -164.191E-03    -165.930E-03    -165.707E-03     330.114E-03    -164.407E-03     2.65702E-03     330.749E-03     181.286E+06    -174.375E+06    -181.571E+06    -359.061E+06    -181.168E+06    -359.009E+06    -174.830E+06     470.899E+03
            1431     96.9318E-03     1.69644E-03     96.9170E-03     329.806E-03    -164.718E-03    -165.088E-03    -164.699E-03     329.786E-03    -165.087E-03     6.07702E-03     331.658E-03     172.238E+06    -155.660E+06    -174.388E+06    -336.353E+06    -174.405E+06    -336.336E+06    -155.660E+06    -157.533E+03
            1432     96.9584E-03     2.54407E-03     96.9250E-03     329.769E-03    -164.680E-03    -165.089E-03    -164.632E-03     329.721E-03    -165.089E-03     9.52210E-03     333.631E-03     160.032E+06    -128.446E+06    -164.001E+06    -302.907E+06    -164.006E+06    -302.902E+06    -128.446E+06     580.635E+03
            1433     96.9967E-03     3.39262E-03     96.9373E-03     329.731E-03    -164.592E-03    -165.139E-03    -164.481E-03     329.620E-03    -165.139E-03     14.4737E-03     336.210E-03     149.715E+06    -97.4273E+06    -151.809E+06    -266.461E+06    -151.830E+06    -266.440E+06    -97.4273E+06     616.653E+03
            1434     97.0489E-03     4.24175E-03     96.9562E-03     329.784E-03    -164.578E-03    -165.206E-03    -164.396E-03     329.584E-03    -165.188E-03     19.7614E-03     339.313E-03     141.644E+06    -67.8729E+06    -137.246E+06    -230.532E+06    -137.277E+06    -230.501E+06    -67.8729E+06     291.764E+03
            1435     97.1138E-03     5.08896E-03     96.9804E-03     329.700E-03    -164.466E-03    -165.235E-03    -164.182E-03     329.398E-03    -165.217E-03     24.3101E-03     342.473E-03     131.188E+06    -41.3964E+06    -123.351E+06    -192.282E+06    -123.382E+06    -192.251E+06    -41.3964E+06     740.302E+03
            1436     97.1958E-03     5.93742E-03     97.0143E-03     329.681E-03    -164.454E-03    -165.227E-03    -164.018E-03     329.245E-03    -165.227E-03     29.2379E-03     345.613E-03     121.983E+06    -17.2418E+06    -110.610E+06    -154.731E+06    -110.660E+06    -154.681E+06    -17.2418E+06     1.22366E+06
            1437     97.2892E-03     6.78669E-03     97.0521E-03     329.887E-03    -164.655E-03    -165.232E-03    -164.060E-03     329.292E-03    -165.232E-03     34.2062E-03     348.948E-03     114.697E+06     3.46854E+06    -97.8090E+06    -120.711E+06    -97.8848E+06    -120.635E+06     3.46854E+06     994.865E+03
            1438     97.3968E-03     7.63425E-03     97.0971E-03     329.785E-03    -164.565E-03    -165.220E-03    -163.798E-03     329.018E-03    -165.220E-03     38.8472E-03     352.017E-03     107.529E+06     22.1811E+06    -76.0466E+06    -92.6397E+06    -85.6372E+06    -83.0491E+06     22.1811E+06     1.38835E+06
            1439     97.5171E-03     8.48320E-03     97.1474E-03     329.435E-03    -164.262E-03    -165.173E-03    -163.332E-03     328.505E-03    -165.173E-03     42.7796E-03     355.035E-03     102.919E+06     40.2300E+06    -42.5949E+06    -74.1345E+06    -74.0199E+06    -42.7095E+06     40.2300E+06     1.47478E+06
            1440     97.6478E-03     9.33321E-03     97.2008E-03     329.336E-03    -164.241E-03    -165.095E-03    -163.166E-03     328.260E-03    -165.095E-03     45.9971E-03     358.773E-03     106.796E+06     57.6649E+06     6.07887E+06    -62.4069E+06    -62.3742E+06     6.04623E+06     57.6649E+06     1.32264E+06
            1441     97.7911E-03     10.1818E-03     97.2596E-03     329.466E-03    -164.444E-03    -165.022E-03    -163.191E-03     328.213E-03    -165.022E-03     49.6501E-03     363.477E-03     121.356E+06     75.3767E+06     60.1035E+06    -52.0700E+06    -52.0387E+06     60.2492E+06     75.1998E+06     1.78632E+06
            1442     97.9469E-03     11.0310E-03     97.3238E-03     329.570E-03    -164.625E-03    -164.946E-03    -163.169E-03     328.114E-03    -164.946E-03     53.5328E-03     369.136E-03     129.998E+06     91.5600E+06     82.3041E+06    -42.5881E+06    -42.5525E+06     91.4674E+06     82.3610E+06     2.17820E+06
            1443     98.1148E-03     11.8810E-03     97.3928E-03     330.002E-03    -164.804E-03    -165.198E-03    -163.336E-03     328.245E-03    -164.909E-03     58.7865E-03     377.021E-03     128.316E+06     100.955E+06     87.6824E+06    -33.4142E+06    -33.3786E+06     100.919E+06     87.6824E+06     2.16399E+06
            1444     98.2988E-03     12.7292E-03     97.4712E-03     330.243E-03    -164.928E-03    -165.315E-03    -163.380E-03     328.311E-03    -164.931E-03     61.7608E-03     384.058E-03     127.739E+06     105.874E+06     99.0421E+06    -25.1360E+06    -25.1099E+06     105.848E+06     99.0421E+06     1.79878E+06
            1445     98.4883E-03     13.5789E-03     97.5477E-03     331.080E-03    -164.960E-03    -166.120E-03    -163.216E-03     328.179E-03    -164.962E-03     74.5962E-03     400.356E-03     131.507E+06     116.628E+06     113.102E+06    -16.5977E+06    -16.5862E+06     115.672E+06     114.047E+06     1.05588E+06
            1446     98.7221E-03     14.4287E-03     97.6620E-03     330.632E-03    -164.576E-03    -166.056E-03    -162.989E-03     327.983E-03    -164.994E-03     70.1794E-03     399.741E-03     139.060E+06     132.711E+06     128.676E+06    -8.31082E+06    -8.30906E+06     128.674E+06     132.711E+06     441.706E+03
            1447     98.3065E-03     848.291E-06     98.3028E-03     330.263E-03    -164.833E-03    -165.430E-03    -165.389E-03     330.258E-03    -164.870E-03     2.08895E-03     330.881E-03     182.403E+06    -175.645E+06    -182.741E+06    -361.406E+06    -181.420E+06    -361.321E+06    -177.051E+06     999.941E+03
            1448     98.3205E-03     1.69559E-03     98.3059E-03     329.976E-03    -164.806E-03    -165.170E-03    -164.787E-03     329.957E-03    -165.169E-03     5.72159E-03     331.837E-03     173.161E+06    -155.118E+06    -174.925E+06    -337.104E+06    -174.939E+06    -337.090E+06    -155.118E+06     1.16647E+06
            1449     98.3479E-03     2.54449E-03     98.3149E-03     329.665E-03    -164.524E-03    -165.142E-03    -164.474E-03     329.616E-03    -165.142E-03     9.68421E-03     333.535E-03     161.537E+06    -127.755E+06    -164.302E+06    -304.171E+06    -164.307E+06    -304.166E+06    -127.755E+06     236.940E+03
            1450     98.3846E-03     3.39284E-03     98.3260E-03     329.749E-03    -164.597E-03    -165.152E-03    -164.493E-03     329.645E-03    -165.152E-03     14.0842E-03     336.224E-03     150.798E+06    -96.9816E+06    -150.450E+06    -266.949E+06    -150.472E+06    -266.928E+06    -96.9816E+06     371.148E+03
            1451     98.4376E-03     4.24064E-03     98.3462E-03     329.793E-03    -164.576E-03    -165.218E-03    -164.399E-03     329.598E-03    -165.200E-03     19.4370E-03     339.282E-03     142.537E+06    -67.9450E+06    -137.329E+06    -231.546E+06    -137.357E+06    -231.518E+06    -67.9450E+06     907.465E+03
            1452     98.5037E-03     5.08884E-03     98.3722E-03     329.887E-03    -164.630E-03    -165.257E-03    -164.326E-03     329.565E-03    -165.239E-03     25.0374E-03     342.618E-03     132.443E+06    -41.6911E+06    -124.197E+06    -194.077E+06    -124.220E+06    -194.054E+06    -41.6911E+06     1.25081E+06
            1453     98.5815E-03     5.93727E-03     98.4026E-03     329.872E-03    -164.609E-03    -165.264E-03    -164.143E-03     329.407E-03    -165.264E-03     30.2245E-03     345.827E-03     122.720E+06    -17.0823E+06    -110.309E+06    -155.585E+06    -110.366E+06    -155.528E+06    -17.0823E+06     1.43291E+06
            1454     98.6766E-03     6.78559E-03     98.4430E-03     329.702E-03    -164.443E-03    -165.259E-03    -163.830E-03     329.089E-03    -165.259E-03     34.7154E-03     348.759E-03     115.390E+06     3.96802E+06    -97.4873E+06    -121.183E+06    -97.7229E+06    -120.948E+06     3.96802E+06     1.74708E+06
            1455     98.7823E-03     7.63491E-03     98.4868E-03     329.465E-03    -164.251E-03    -165.214E-03    -163.487E-03     328.700E-03    -165.214E-03     38.7657E-03     351.692E-03     108.465E+06     22.2645E+06    -77.2182E+06    -93.3410E+06    -86.1124E+06    -84.4468E+06     22.2645E+06     1.68882E+06
            1456     98.9005E-03     8.48452E-03     98.5359E-03     329.248E-03    -164.105E-03    -165.143E-03    -163.185E-03     328.328E-03    -165.143E-03     42.5221E-03     354.901E-03     103.220E+06     40.2001E+06    -43.5530E+06    -74.1412E+06    -74.0075E+06    -43.6867E+06     40.2001E+06     1.64440E+06
            1457     99.0315E-03     9.33294E-03     98.5907E-03     329.286E-03    -164.227E-03    -165.059E-03    -163.148E-03     328.207E-03    -165.059E-03     46.0606E-03     358.760E-03     106.855E+06     57.4201E+06     5.25823E+06    -62.8305E+06    -62.7599E+06     5.18765E+06     57.4201E+06     1.82335E+06
            1458     99.1732E-03     10.1825E-03     98.6491E-03     329.376E-03    -164.389E-03    -164.986E-03    -163.126E-03     328.112E-03    -164.986E-03     49.8489E-03     363.425E-03     121.353E+06     74.9865E+06     59.1472E+06    -52.6392E+06    -52.5937E+06     59.1018E+06     74.9865E+06     2.20634E+06
            1459     99.3280E-03     11.0318E-03     98.7135E-03     329.507E-03    -164.585E-03    -164.922E-03    -163.131E-03     328.039E-03    -164.908E-03     53.7445E-03     369.096E-03     129.880E+06     91.2171E+06     82.0196E+06    -42.7988E+06    -42.7408E+06     90.8238E+06     82.3549E+06     2.73164E+06
            1460     99.4939E-03     11.8804E-03     98.7821E-03     330.075E-03    -164.819E-03    -165.256E-03    -163.417E-03     328.291E-03    -164.874E-03     59.2390E-03     377.097E-03     128.550E+06     100.719E+06     87.5162E+06    -33.8608E+06    -33.8062E+06     100.664E+06     87.5162E+06     2.68160E+06
            1461     99.6780E-03     12.7305E-03     98.8617E-03     330.261E-03    -164.893E-03    -165.368E-03    -163.433E-03     328.337E-03    -164.904E-03     61.6233E-03     384.070E-03     128.569E+06     106.308E+06     99.4400E+06    -25.5472E+06    -25.5227E+06     106.284E+06     99.4400E+06     1.55500E+06
            1462     99.8648E-03     13.5791E-03     98.9373E-03     331.036E-03    -164.928E-03    -166.108E-03    -163.177E-03     328.117E-03    -164.940E-03     74.6381E-03     400.434E-03     132.457E+06     117.055E+06     113.350E+06    -17.2098E+06    -17.2064E+06     115.874E+06     114.528E+06     545.960E+03
            1463     100.096E-03     14.4289E-03     99.0510E-03     330.783E-03    -164.725E-03    -166.058E-03    -163.102E-03     328.077E-03    -164.975E-03     70.9018E-03     400.068E-03     140.002E+06     133.482E+06     129.176E+06    -8.61365E+06    -8.61250E+06     129.175E+06     133.482E+06     334.353E+03
            1464     99.6967E-03     847.424E-06     99.6931E-03     330.356E-03    -164.827E-03    -165.529E-03    -165.358E-03     330.351E-03    -164.993E-03     2.80447E-03     330.984E-03     183.818E+06    -175.355E+06    -182.787E+06    -362.755E+06    -181.921E+06    -362.671E+06    -176.305E+06    -226.143E+03
            1465     99.7105E-03     1.69588E-03     99.6961E-03     329.998E-03    -164.801E-03    -165.197E-03    -164.783E-03     329.980E-03    -165.197E-03     5.65765E-03     331.854E-03     174.727E+06    -156.047E+06    -173.367E+06    -338.561E+06    -173.390E+06    -338.538E+06    -156.047E+06     186.867E+03
            1466     99.7353E-03     2.54420E-03     99.7029E-03     329.863E-03    -164.682E-03    -165.181E-03    -164.631E-03     329.812E-03    -165.181E-03     9.78665E-03     333.710E-03     162.973E+06    -127.247E+06    -162.800E+06    -304.741E+06    -162.825E+06    -304.716E+06    -127.247E+06     849.150E+03
            1467     99.7753E-03     3.39214E-03     99.7176E-03     329.829E-03    -164.623E-03    -165.207E-03    -164.515E-03     329.721E-03    -165.207E-03     14.4117E-03     336.315E-03     152.164E+06    -97.5872E+06    -151.475E+06    -269.056E+06    -151.514E+06    -269.017E+06    -97.5872E+06     1.47909E+06
            1468     99.8253E-03     4.24045E-03     99.7352E-03     329.611E-03    -164.382E-03    -165.229E-03    -164.182E-03     329.411E-03    -165.229E-03     19.6292E-03     339.107E-03     143.715E+06    -67.6640E+06    -138.022E+06    -232.657E+06    -138.045E+06    -232.635E+06    -67.6640E+06     1.37776E+06
            1469     99.8908E-03     5.09016E-03     99.7610E-03     329.603E-03    -164.380E-03    -165.223E-03    -164.057E-03     329.280E-03    -165.223E-03     25.1062E-03     342.286E-03     133.709E+06    -41.0285E+06    -124.002E+06    -194.948E+06    -124.022E+06    -194.928E+06    -41.0285E+06     1.16389E+06
            1470     99.9712E-03     5.93794E-03     99.7947E-03     329.776E-03    -164.554E-03    -165.223E-03    -164.088E-03     329.311E-03    -165.223E-03     30.2168E-03     345.721E-03     123.785E+06    -17.4329E+06    -110.436E+06    -157.423E+06    -110.507E+06    -157.353E+06    -17.4329E+06     1.56800E+06
            1471     100.062E-03     6.78627E-03     99.8316E-03     329.600E-03    -164.384E-03    -165.216E-03    -163.761E-03     328.977E-03    -165.216E-03     34.9761E-03     348.681E-03     116.303E+06     4.20025E+06    -97.0008E+06    -122.479E+06    -97.2919E+06    -122.188E+06     4.20025E+06     2.22176E+06
            1472     100.168E-03     7.63515E-03     99.8765E-03     329.409E-03    -164.237E-03    -165.171E-03    -163.466E-03     328.638E-03    -165.171E-03     38.9472E-03     351.634E-03     109.082E+06     23.1500E+06    -76.8180E+06    -93.1854E+06    -85.0400E+06    -84.9634E+06     23.1500E+06     2.24215E+06
            1473     100.285E-03     8.48345E-03     99.9251E-03     329.259E-03    -164.155E-03    -165.104E-03    -163.235E-03     328.338E-03    -165.104E-03     42.5407E-03     354.838E-03     103.471E+06     40.4285E+06    -44.3771E+06    -73.8534E+06    -73.5812E+06    -44.6493E+06     40.4285E+06     2.45292E+06
            1474     100.414E-03     9.33373E-03     99.9795E-03     329.176E-03    -164.156E-03    -165.021E-03    -163.058E-03     328.079E-03    -165.021E-03     46.4402E-03     358.524E-03     106.917E+06     57.1465E+06     3.86844E+06    -63.2822E+06    -63.1266E+06     3.71288E+06     57.1465E+06     2.89535E+06
            1475     100.556E-03     10.1827E-03     100.039E-03     329.366E-03    -164.418E-03    -164.948E-03    -163.153E-03     328.101E-03    -164.948E-03     49.9098E-03     363.342E-03     120.965E+06     74.6868E+06     57.4753E+06    -53.0847E+06    -52.9941E+06     57.3848E+06     74.6868E+06     2.97400E+06
            1476     100.709E-03     11.0322E-03     100.102E-03     329.654E-03    -164.711E-03    -164.943E-03    -163.328E-03     328.210E-03    -164.882E-03     53.3319E-03     369.205E-03     129.731E+06     91.2078E+06     81.4831E+06    -42.9357E+06    -42.8662E+06     90.1139E+06     82.5076E+06     3.01715E+06
            1477     100.875E-03     11.8820E-03     100.172E-03     329.964E-03    -164.822E-03    -165.143E-03    -163.345E-03     328.201E-03    -164.856E-03     58.8713E-03     377.111E-03     128.844E+06     101.135E+06     88.1301E+06    -33.6616E+06    -33.6168E+06      101.09E+06     88.1301E+06     2.29069E+06
            1478     101.057E-03     12.7297E-03     100.252E-03     329.833E-03    -164.734E-03    -165.099E-03    -163.045E-03     327.918E-03    -164.873E-03     61.4345E-03     383.677E-03     128.662E+06     106.974E+06     100.348E+06    -24.8614E+06    -24.8427E+06     106.955E+06     100.348E+06     1.32606E+06
            1479     101.241E-03     13.5800E-03     100.326E-03     331.077E-03    -164.796E-03    -166.281E-03    -163.257E-03     328.159E-03    -164.902E-03     74.6597E-03     400.377E-03     132.838E+06     117.832E+06     114.380E+06    -16.6933E+06    -16.6867E+06     116.695E+06     115.511E+06     647.060E+03
            1480     101.471E-03     14.4303E-03     100.440E-03     331.342E-03    -164.958E-03    -166.384E-03    -163.692E-03     328.650E-03    -164.958E-03     70.7413E-03     400.642E-03     140.285E+06     134.005E+06     129.785E+06    -8.33304E+06    -8.33252E+06     129.784E+06     134.005E+06     212.246E+03
            1481     101.086E-03     848.141E-06     101.082E-03     329.859E-03    -164.381E-03    -165.478E-03    -165.014E-03     329.854E-03    -164.840E-03     2.54434E-03     330.492E-03     185.857E+06    -172.613E+06    -183.391E+06    -363.622E+06    -180.568E+06    -363.566E+06    -175.491E+06     401.394E+03
            1482     101.100E-03     1.69632E-03     101.086E-03     330.042E-03    -164.898E-03    -165.144E-03    -164.981E-03     330.022E-03    -165.041E-03     6.11751E-03     331.874E-03     176.422E+06    -155.111E+06    -173.766E+06    -339.960E+06    -173.791E+06    -339.934E+06    -155.111E+06     383.466E+03
            1483     101.126E-03     2.54383E-03     101.094E-03     329.947E-03    -164.808E-03    -165.139E-03    -164.753E-03     329.891E-03    -165.138E-03     10.1997E-03     333.790E-03     164.690E+06    -127.694E+06    -163.438E+06    -306.995E+06    -163.466E+06    -306.968E+06    -127.694E+06     1.24177E+06
            1484     101.163E-03     3.39250E-03     101.106E-03     329.650E-03    -164.471E-03    -165.179E-03    -164.357E-03     329.536E-03    -165.179E-03     14.8814E-03     336.102E-03     154.390E+06    -96.4107E+06    -150.468E+06    -270.277E+06    -150.495E+06    -270.251E+06    -96.4107E+06     1.29323E+06
            1485     101.214E-03     4.24127E-03     101.125E-03     329.747E-03    -164.546E-03    -165.201E-03    -164.343E-03     329.544E-03    -165.201E-03     19.8617E-03     339.227E-03     145.646E+06    -66.7212E+06    -136.453E+06    -233.809E+06    -136.483E+06    -233.778E+06    -66.7212E+06     1.46673E+06
            1486     101.279E-03     5.08827E-03     101.151E-03     329.647E-03    -164.429E-03    -165.218E-03    -164.106E-03     329.324E-03    -165.218E-03     25.1127E-03     342.353E-03     135.379E+06    -40.2949E+06    -123.155E+06    -196.118E+06    -123.225E+06    -196.049E+06    -40.2949E+06     2.03753E+06
            1487     101.358E-03     5.93795E-03     101.184E-03     329.327E-03    -164.133E-03    -165.194E-03    -163.674E-03     328.868E-03    -165.194E-03     29.9912E-03     345.254E-03     125.009E+06    -17.0442E+06    -110.329E+06    -158.628E+06    -110.422E+06    -158.535E+06    -17.0442E+06     1.89011E+06
            1488     101.449E-03     6.78704E-03     101.222E-03     329.257E-03    -164.113E-03    -165.144E-03    -163.501E-03     328.645E-03    -165.144E-03     34.6443E-03     348.356E-03     117.061E+06     3.57113E+06    -97.1397E+06    -124.528E+06    -97.3268E+06    -124.341E+06     3.57113E+06     1.95585E+06
            1489     101.553E-03     7.63570E-03     101.266E-03     329.215E-03    -164.128E-03    -165.087E-03    -163.343E-03     328.430E-03    -165.087E-03     39.2624E-03     351.428E-03     109.664E+06     23.3322E+06    -76.6026E+06    -93.9828E+06    -84.4587E+06    -86.1267E+06     23.3322E+06     2.79978E+06
            1490     101.670E-03     8.48549E-03     101.315E-03     329.440E-03    -164.334E-03    -165.106E-03    -163.467E-03     328.501E-03    -165.034E-03     43.0026E-03     354.952E-03     104.098E+06     41.0324E+06    -45.2057E+06    -73.7230E+06    -73.2187E+06    -45.7100E+06     41.0324E+06     3.31149E+06
            1491     101.797E-03     9.33383E-03     101.368E-03     329.625E-03    -164.563E-03    -165.062E-03    -163.557E-03     328.546E-03    -164.990E-03     46.0873E-03     358.952E-03     107.044E+06     57.3843E+06     2.18446E+06    -63.2478E+06    -63.0341E+06     1.97077E+06     57.3843E+06     3.55442E+06
            1492     101.939E-03     10.1835E-03     101.429E-03     329.622E-03    -164.668E-03    -164.954E-03    -163.438E-03     328.393E-03    -164.954E-03     49.2129E-03     363.575E-03     120.391E+06     75.2786E+06     56.1841E+06    -52.6368E+06    -52.4969E+06     56.0443E+06     75.2786E+06     3.80248E+06
            1493     102.090E-03     11.0319E-03     101.492E-03     329.598E-03    -164.652E-03    -164.946E-03    -163.288E-03     328.186E-03    -164.898E-03     52.7211E-03     369.166E-03     129.481E+06     92.4273E+06     81.4670E+06    -42.0477E+06    -41.9736E+06     90.2653E+06     83.5549E+06     2.97009E+06
            1494     102.255E-03     11.8799E-03     101.562E-03     329.560E-03    -164.655E-03    -164.905E-03    -162.950E-03     327.807E-03    -164.857E-03     58.6299E-03     376.782E-03     128.782E+06     102.292E+06     89.6049E+06    -32.2893E+06    -32.2662E+06     102.269E+06     89.6049E+06     1.66620E+06
            1495     102.434E-03     12.7316E-03     101.640E-03     329.764E-03    -164.716E-03    -165.048E-03    -163.017E-03     327.877E-03    -164.861E-03     60.9378E-03     383.485E-03     128.248E+06     107.321E+06     101.608E+06    -23.6756E+06    -23.6639E+06     107.309E+06     101.608E+06     1.14808E+06
            1496     102.618E-03     13.5811E-03     101.716E-03     331.487E-03    -164.809E-03    -166.678E-03    -163.731E-03     328.634E-03    -164.903E-03     73.8164E-03     400.535E-03     132.652E+06     118.217E+06     115.402E+06    -15.8157E+06    -15.7978E+06     117.282E+06     116.319E+06     1.24239E+06
            1497     102.849E-03     14.4284E-03     101.832E-03     331.387E-03    -164.789E-03    -166.598E-03    -163.761E-03     328.735E-03    -164.975E-03     70.2685E-03     400.644E-03     140.457E+06     134.132E+06     130.403E+06    -8.14233E+06    -8.13037E+06     130.391E+06     134.132E+06     881.611E+03
            1498     102.475E-03     848.872E-06     102.471E-03     329.488E-03    -164.369E-03    -165.119E-03    -164.564E-03     329.481E-03    -164.917E-03     2.87390E-03     330.115E-03     187.330E+06    -172.290E+06    -182.666E+06    -364.591E+06    -179.810E+06    -364.569E+06    -175.169E+06    -170.239E+03
            1499     102.490E-03     1.69644E-03     102.476E-03     329.986E-03    -164.871E-03    -165.115E-03    -165.054E-03     329.967E-03    -164.913E-03     6.02316E-03     331.824E-03     180.285E+06    -153.211E+06    -172.396E+06    -342.138E+06    -172.413E+06    -342.121E+06    -153.211E+06     889.357E+03
            1500     102.515E-03     2.54481E-03     102.483E-03     329.794E-03    -164.732E-03    -165.062E-03    -164.682E-03     329.743E-03    -165.061E-03     9.69503E-03     333.633E-03     168.204E+06    -125.982E+06    -162.005E+06    -309.024E+06    -162.019E+06    -309.010E+06    -125.982E+06     1.08934E+06
            1501     102.552E-03     3.39295E-03     102.495E-03     329.627E-03    -164.518E-03    -165.109E-03    -164.405E-03     329.515E-03    -165.109E-03     14.6994E-03     336.056E-03     155.813E+06    -96.0356E+06    -149.200E+06    -271.185E+06    -149.224E+06    -271.160E+06    -96.0356E+06     1.37808E+06
            1502     102.603E-03     4.24090E-03     102.515E-03     329.615E-03    -164.472E-03    -165.143E-03    -164.262E-03     329.405E-03    -165.143E-03     20.1327E-03     339.060E-03     147.603E+06    -66.8003E+06    -136.157E+06    -236.016E+06    -136.205E+06    -235.968E+06    -66.8003E+06     2.03673E+06
            1503     102.667E-03     5.09017E-03     102.541E-03     329.473E-03    -164.320E-03    -165.153E-03    -163.988E-03     329.141E-03    -165.153E-03     25.4606E-03     342.173E-03     137.185E+06    -40.0131E+06    -122.450E+06    -197.978E+06    -122.541E+06    -197.887E+06    -40.0131E+06     2.50887E+06
            1504     102.744E-03     5.93803E-03     102.572E-03     329.195E-03    -164.071E-03    -165.124E-03    -163.596E-03     328.720E-03    -165.124E-03     30.4713E-03     345.120E-03     126.267E+06    -16.0740E+06    -108.992E+06    -159.384E+06    -109.177E+06    -159.199E+06    -16.0740E+06     2.65051E+06
            1505     102.835E-03     6.78708E-03     102.611E-03     329.132E-03    -164.058E-03    -165.074E-03    -163.439E-03     328.513E-03    -165.074E-03     34.8738E-03     348.240E-03     118.494E+06     4.07129E+06    -96.8681E+06    -126.032E+06    -97.1778E+06    -125.722E+06     4.07129E+06     2.65306E+06
            1506     102.938E-03     7.63689E-03     102.654E-03     329.336E-03    -164.305E-03    -165.031E-03    -163.553E-03     328.584E-03    -165.031E-03     38.4642E-03     351.529E-03     110.821E+06     22.9327E+06    -78.1272E+06    -95.5554E+06    -85.4719E+06    -88.2107E+06     22.9327E+06     2.80044E+06
            1507     103.054E-03     8.48567E-03     102.704E-03     329.660E-03    -164.577E-03    -165.083E-03    -163.746E-03     328.757E-03    -165.011E-03     42.1518E-03     355.119E-03     104.928E+06     40.9535E+06    -47.3624E+06    -74.2015E+06    -73.7355E+06    -47.8285E+06     40.9535E+06     3.21038E+06
            1508     103.183E-03     9.33387E-03     102.760E-03     329.945E-03    -164.845E-03    -165.101E-03    -163.886E-03     328.885E-03    -165.000E-03     45.7251E-03     359.332E-03     107.024E+06     58.2569E+06     740.735E+03    -62.4462E+06    -62.2028E+06     497.286E+03     58.2569E+06     3.66276E+06
            1509     103.320E-03     10.1814E-03     102.817E-03     329.723E-03    -164.714E-03    -165.009E-03    -163.497E-03     328.477E-03    -164.980E-03     49.5235E-03     363.726E-03     119.851E+06     76.6727E+06     56.0217E+06    -51.1798E+06    -51.0377E+06     55.8796E+06     76.6727E+06     3.81165E+06
            1510     103.473E-03     11.0311E-03     102.884E-03     329.276E-03    -164.366E-03    -164.910E-03    -162.933E-03     327.843E-03    -164.910E-03     53.0815E-03     368.914E-03     129.379E+06     94.0692E+06     82.6976E+06    -40.5015E+06    -40.4283E+06     91.4948E+06     85.1988E+06     2.92082E+06
            1511     103.633E-03     11.8824E-03     102.949E-03     329.658E-03    -164.545E-03    -165.112E-03    -163.048E-03     327.906E-03    -164.858E-03     58.6190E-03     376.855E-03     129.054E+06     103.360E+06     91.0678E+06    -31.3146E+06    -31.2860E+06     103.331E+06     91.0678E+06     1.93669E+06
            1512     103.814E-03     12.7303E-03     103.031E-03     330.341E-03    -164.865E-03    -165.475E-03    -163.570E-03     328.452E-03    -164.882E-03     61.0387E-03     383.967E-03     128.169E+06     106.811E+06     102.214E+06    -23.5795E+06    -23.5415E+06     106.773E+06     102.214E+06     1.93037E+06
            1513     103.996E-03     13.5781E-03     103.106E-03     331.552E-03    -164.938E-03    -166.615E-03    -163.736E-03     328.674E-03    -164.938E-03     74.0846E-03     400.620E-03     132.412E+06     117.365E+06     115.474E+06    -15.9808E+06    -15.9340E+06     116.602E+06     116.189E+06     2.24765E+06
            1514     104.225E-03     14.4291E-03     103.222E-03     330.892E-03    -164.563E-03    -166.329E-03    -163.217E-03     328.208E-03    -164.991E-03     70.5920E-03     400.191E-03     140.829E+06     134.369E+06     131.356E+06    -7.93639E+06    -7.91315E+06     131.333E+06     134.369E+06     1.50142E+06
            1515     103.862E-03     848.101E-06     103.859E-03     329.983E-03    -164.504E-03    -165.479E-03    -165.000E-03     329.978E-03    -164.978E-03     2.85916E-03     330.612E-03     188.306E+06    -172.180E+06    -181.550E+06    -364.986E+06    -180.009E+06    -364.979E+06    -173.729E+06     231.762E+03
            1516     103.880E-03     1.69629E-03     103.867E-03     329.780E-03    -164.637E-03    -165.143E-03    -164.718E-03     329.762E-03    -165.044E-03     5.69074E-03     331.620E-03     182.763E+06    -153.318E+06    -172.214E+06    -344.662E+06    -172.221E+06    -344.654E+06    -153.318E+06     341.036E+03
            1517     103.903E-03     2.54419E-03     103.872E-03     329.793E-03    -164.723E-03    -165.070E-03    -164.676E-03     329.746E-03    -165.070E-03     9.38733E-03     333.653E-03     170.549E+06    -126.384E+06    -161.510E+06    -311.495E+06    -161.525E+06    -311.479E+06    -126.384E+06     1.27161E+06
            1518     103.941E-03     3.39275E-03     103.886E-03     329.608E-03    -164.495E-03    -165.113E-03    -164.388E-03     329.501E-03    -165.113E-03     14.2926E-03     336.075E-03     157.618E+06    -96.3816E+06    -149.463E+06    -273.389E+06    -149.508E+06    -273.344E+06    -96.3816E+06     2.29730E+06
            1519     103.991E-03     4.24151E-03     103.904E-03     329.215E-03    -164.102E-03    -165.114E-03    -163.903E-03     329.016E-03    -165.114E-03     19.6425E-03     338.670E-03     149.336E+06    -66.5094E+06    -135.840E+06    -237.626E+06    -135.897E+06    -237.568E+06    -66.5094E+06     2.40889E+06
            1520     104.055E-03     5.08993E-03     103.930E-03     328.995E-03    -163.930E-03    -165.065E-03    -163.608E-03     328.673E-03    -165.065E-03     25.0300E-03     341.690E-03     138.670E+06    -39.9983E+06    -121.910E+06    -199.752E+06    -121.987E+06    -199.675E+06    -39.9983E+06     2.37226E+06
            1521     104.131E-03     5.93940E-03     103.962E-03     329.227E-03    -164.195E-03    -165.032E-03    -163.731E-03     328.763E-03    -165.032E-03     30.1453E-03     345.123E-03     128.431E+06    -15.4007E+06    -108.324E+06    -161.486E+06    -108.544E+06    -161.266E+06    -15.4007E+06     3.08274E+06
            1522     104.221E-03     6.78850E-03     103.999E-03     329.652E-03    -164.612E-03    -165.040E-03    -164.009E-03     329.050E-03    -165.040E-03     34.4172E-03     348.683E-03     120.607E+06     6.02438E+06    -95.1557E+06    -127.119E+06    -95.6216E+06    -126.653E+06     6.02438E+06     3.61455E+06
            1523     104.325E-03     7.63597E-03     104.045E-03     329.826E-03    -164.767E-03    -165.059E-03    -164.031E-03     329.090E-03    -165.059E-03     38.0709E-03     352.021E-03     111.954E+06     24.5316E+06    -77.2020E+06    -95.3038E+06    -83.7435E+06    -88.7623E+06     24.5316E+06     3.18091E+06
            1524     104.439E-03     8.48402E-03     104.093E-03     329.598E-03    -164.543E-03    -165.055E-03    -163.639E-03     328.694E-03    -165.055E-03     42.1504E-03     355.110E-03     105.321E+06     41.6276E+06    -49.5890E+06    -72.9737E+06    -72.4463E+06    -50.1164E+06     41.6276E+06     3.19401E+06
            1525     104.567E-03     9.33370E-03     104.149E-03     329.405E-03    -164.370E-03    -165.035E-03    -163.302E-03     328.309E-03    -165.007E-03     46.4434E-03     358.746E-03     107.279E+06     58.6434E+06    -1.20052E+06    -61.7652E+06    -61.4495E+06    -1.51626E+06     58.6434E+06     4.03118E+06
            1526     104.705E-03     10.1833E-03     104.209E-03     329.472E-03    -164.495E-03    -164.977E-03    -163.251E-03     328.199E-03    -164.948E-03     50.0541E-03     363.476E-03     120.382E+06     77.2137E+06     56.3334E+06    -51.2440E+06    -51.0756E+06     56.1650E+06     77.2137E+06     4.07622E+06
            1527     104.853E-03     11.0326E-03     104.271E-03     329.667E-03    -164.565E-03    -165.102E-03    -163.349E-03     328.235E-03    -164.886E-03     53.1129E-03     369.274E-03     131.851E+06     95.1518E+06     82.9250E+06    -42.2466E+06    -42.1580E+06     92.4949E+06     85.4934E+06     3.35560E+06
            1528     105.014E-03     11.8804E-03     104.340E-03     330.149E-03    -164.723E-03    -165.426E-03    -163.541E-03     328.409E-03    -164.868E-03     58.4909E-03     377.291E-03     131.544E+06     103.652E+06     90.6896E+06    -33.7824E+06    -33.7219E+06     103.591E+06     90.6896E+06     2.82033E+06
            1529     105.194E-03     12.7300E-03     104.420E-03     330.183E-03    -164.789E-03    -165.394E-03    -163.363E-03     328.264E-03    -164.901E-03     61.5477E-03     383.824E-03     128.925E+06     105.588E+06     101.247E+06    -25.4371E+06    -25.3705E+06     105.522E+06     101.247E+06     2.91409E+06
            1530     105.375E-03     13.5803E-03     104.497E-03     331.189E-03    -164.825E-03    -166.364E-03    -163.325E-03     328.262E-03    -164.937E-03     74.8048E-03     400.279E-03     133.159E+06     116.930E+06     115.181E+06    -17.0941E+06    -17.0389E+06     116.163E+06     115.892E+06     2.59592E+06
            1531     105.600E-03     14.4287E-03     104.610E-03     330.920E-03    -164.664E-03    -166.255E-03    -163.244E-03     328.224E-03    -164.980E-03     70.7550E-03     400.247E-03     142.406E+06     135.165E+06     132.905E+06    -8.35449E+06    -8.33830E+06     132.889E+06     135.165E+06     1.23108E+06
            1532     105.255E-03     846.880E-06     105.252E-03     330.380E-03    -164.647E-03    -165.733E-03    -165.420E-03     330.375E-03    -164.955E-03     3.01138E-03     331.020E-03     189.563E+06    -172.898E+06    -180.623E+06    -366.186E+06    -179.081E+06    -366.180E+06    -174.446E+06    -87.1322E+03
            1533     105.266E-03     1.69601E-03     105.252E-03     329.710E-03    -164.547E-03    -165.163E-03    -164.527E-03     329.690E-03    -165.163E-03     5.94965E-03     331.564E-03     184.580E+06    -153.790E+06    -172.239E+06    -346.749E+06    -172.255E+06    -346.733E+06    -153.790E+06     874.575E+03
            1534     105.295E-03     2.54474E-03     105.264E-03     329.690E-03    -164.600E-03    -165.090E-03    -164.547E-03     329.637E-03    -165.090E-03     10.0124E-03     333.548E-03     172.746E+06    -126.335E+06    -161.917E+06    -313.829E+06    -161.933E+06    -313.813E+06    -126.335E+06     1.21504E+06
            1535     105.328E-03     3.39230E-03     105.273E-03     329.584E-03    -164.476E-03    -165.108E-03    -164.367E-03     329.476E-03    -165.108E-03     14.4076E-03     336.066E-03     160.533E+06    -95.7624E+06    -148.654E+06    -275.822E+06    -148.679E+06    -275.797E+06    -95.7624E+06     1.41454E+06
            1536     105.379E-03     4.24107E-03     105.294E-03     329.132E-03    -164.034E-03    -165.098E-03    -163.839E-03     328.936E-03    -165.098E-03     19.4846E-03     338.643E-03     151.316E+06    -66.3905E+06    -134.924E+06    -239.530E+06    -134.988E+06    -239.465E+06    -66.3905E+06     2.40513E+06
            1537     105.440E-03     5.09056E-03     105.318E-03     329.101E-03    -164.042E-03    -165.059E-03    -163.731E-03     328.790E-03    -165.059E-03     24.6063E-03     341.782E-03     140.901E+06    -39.2130E+06    -121.382E+06    -201.564E+06    -121.499E+06    -201.447E+06    -39.2130E+06     2.99037E+06
            1538     105.518E-03     5.93958E-03     105.351E-03     329.450E-03    -164.398E-03    -165.052E-03    -163.956E-03     329.007E-03    -165.052E-03     29.4520E-03     345.313E-03     130.498E+06    -14.8552E+06    -107.973E+06    -163.561E+06    -108.169E+06    -163.365E+06    -14.8552E+06     3.17704E+06
            1539     105.609E-03     6.78677E-03     105.390E-03     329.656E-03    -164.586E-03    -165.070E-03    -163.989E-03     329.059E-03    -165.070E-03     34.2451E-03     348.624E-03     121.884E+06     6.16057E+06    -94.7257E+06    -128.972E+06    -95.1771E+06    -128.520E+06     6.16057E+06     3.62595E+06
            1540     105.711E-03     7.63575E-03     105.434E-03     329.658E-03    -164.584E-03    -165.073E-03    -163.818E-03     328.892E-03    -165.073E-03     38.8221E-03     351.763E-03     112.912E+06     25.6550E+06    -76.0154E+06    -95.7371E+06    -82.7276E+06    -89.0249E+06     25.6550E+06     3.89464E+06
            1541     105.824E-03     8.48502E-03     105.484E-03     329.597E-03    -164.542E-03    -165.055E-03    -163.621E-03     328.676E-03    -165.055E-03     42.5892E-03     355.145E-03     105.842E+06     42.4468E+06    -51.0679E+06    -72.1309E+06    -71.1545E+06    -52.0443E+06     42.4468E+06     4.19539E+06
            1542     105.949E-03     9.33391E-03     105.537E-03     329.311E-03    -164.310E-03    -165.001E-03    -163.234E-03     328.236E-03    -165.001E-03     45.9983E-03     358.650E-03     107.996E+06     58.9132E+06    -3.15797E+06    -61.5161E+06    -60.9026E+06     -3.7715E+06     58.9132E+06     5.23821E+06
            1543     106.088E-03     10.1837E-03     105.598E-03     329.274E-03    -164.340E-03    -164.934E-03    -163.113E-03     328.047E-03    -164.934E-03     49.1319E-03     363.230E-03     121.191E+06     77.3048E+06     56.3821E+06    -52.0181E+06    -51.7314E+06     56.0954E+06     77.3048E+06     5.25437E+06
            1544     106.236E-03     11.0320E-03     105.662E-03     329.785E-03    -164.693E-03    -165.092E-03    -163.482E-03     328.359E-03    -164.877E-03     53.0010E-03     369.335E-03     132.324E+06     95.0058E+06     83.5805E+06    -42.5482E+06    -42.3901E+06     92.1609E+06     86.2673E+06     4.56132E+06
            1545     106.397E-03     11.8810E-03     105.731E-03     330.252E-03    -164.843E-03    -165.410E-03    -163.605E-03     328.472E-03    -164.867E-03     59.1921E-03     377.387E-03     132.046E+06     103.722E+06     91.8347E+06    -33.7693E+06    -33.6238E+06     103.577E+06     91.8347E+06     4.35280E+06
            1546     106.572E-03     12.7300E-03     105.809E-03     330.141E-03    -164.785E-03    -165.355E-03    -163.326E-03     328.223E-03    -164.897E-03     61.5045E-03     383.850E-03     129.841E+06     106.169E+06     101.705E+06    -25.8372E+06    -25.7405E+06     106.072E+06     101.705E+06     3.36886E+06
            1547     106.753E-03     13.5795E-03     105.886E-03     330.937E-03    -164.816E-03    -166.120E-03    -163.132E-03     328.060E-03    -164.928E-03     74.1030E-03     400.129E-03     134.063E+06     117.904E+06     115.885E+06    -17.1567E+06    -17.1265E+06     117.169E+06     116.589E+06     1.83308E+06
            1548     106.978E-03     14.4299E-03     106.001E-03     330.903E-03    -164.873E-03    -166.030E-03    -163.250E-03     328.219E-03    -164.969E-03     70.7605E-03     400.201E-03     143.518E+06     136.104E+06     134.069E+06    -8.41988E+06    -8.41244E+06     134.061E+06     136.104E+06     936.962E+03
            1549     106.643E-03     848.903E-06     106.639E-03     329.944E-03    -164.663E-03    -165.281E-03    -165.108E-03     329.939E-03    -164.830E-03     2.65569E-03     330.609E-03     191.670E+06    -173.195E+06    -180.296E+06    -368.278E+06    -179.735E+06    -368.259E+06    -173.775E+06     718.882E+03
            1550     106.658E-03     1.69591E-03     106.644E-03     329.843E-03    -164.728E-03    -165.115E-03    -164.782E-03     329.823E-03    -165.040E-03     6.00747E-03     331.715E-03     185.851E+06    -154.170E+06    -173.098E+06    -348.616E+06    -173.117E+06    -348.597E+06    -154.170E+06     682.412E+03
            1551     106.681E-03     2.54439E-03     106.650E-03     329.438E-03    -164.399E-03    -165.039E-03    -164.343E-03     329.382E-03    -165.039E-03     10.2125E-03     333.275E-03     174.139E+06    -126.004E+06    -161.899E+06    -315.016E+06    -161.922E+06    -314.992E+06    -126.004E+06     1.13706E+06
            1552     106.720E-03     3.39347E-03     106.666E-03     329.390E-03    -164.363E-03    -165.027E-03    -164.253E-03     329.281E-03    -165.027E-03     14.5477E-03     335.852E-03     162.129E+06    -96.0376E+06    -149.638E+06    -277.932E+06    -149.661E+06    -277.909E+06    -96.0376E+06     1.41672E+06
            1553     106.765E-03     4.24166E-03     106.681E-03     329.521E-03    -164.460E-03    -165.061E-03    -164.266E-03     329.327E-03    -165.061E-03     19.3658E-03     339.027E-03     153.364E+06    -66.8164E+06    -136.251E+06    -242.303E+06    -136.297E+06    -242.257E+06    -66.8164E+06     1.98050E+06
            1554     106.829E-03     5.09008E-03     106.708E-03     329.506E-03    -164.411E-03    -165.095E-03    -164.094E-03     329.189E-03    -165.095E-03     24.8513E-03     342.172E-03     142.292E+06    -39.5237E+06    -121.815E+06    -203.522E+06    -121.907E+06    -203.430E+06    -39.5237E+06     2.56454E+06
            1555     106.906E-03     5.93733E-03     106.741E-03     329.420E-03    -164.319E-03    -165.101E-03    -163.850E-03     328.951E-03    -165.101E-03     30.2534E-03     345.281E-03     131.696E+06    -15.4530E+06    -107.886E+06    -165.843E+06    -108.127E+06    -165.602E+06    -15.4530E+06     3.39064E+06
            1556     106.995E-03     6.78780E-03     106.779E-03     329.394E-03    -164.307E-03    -165.087E-03    -163.691E-03     328.777E-03    -165.087E-03     34.7958E-03     348.396E-03     122.814E+06     5.70281E+06    -94.9563E+06    -130.757E+06    -95.4515E+06    -130.262E+06     5.70281E+06     4.00913E+06
            1557     107.097E-03     7.63677E-03     106.824E-03     329.416E-03    -164.357E-03    -165.059E-03    -163.605E-03     328.664E-03    -165.059E-03     38.4600E-03     351.546E-03     113.441E+06     25.0275E+06    -77.1368E+06    -96.9132E+06    -83.4439E+06    -90.6060E+06     25.0275E+06     4.22986E+06
            1558     107.210E-03     8.48525E-03     106.873E-03     329.679E-03    -164.640E-03    -165.039E-03    -163.736E-03     328.775E-03    -165.039E-03     42.1934E-03     355.174E-03     107.005E+06     41.8917E+06    -52.8184E+06    -73.8673E+06    -72.2954E+06    -54.3902E+06     41.8917E+06     5.28930E+06
            1559     107.334E-03     9.33354E-03     106.928E-03     329.796E-03    -164.780E-03    -165.017E-03    -163.727E-03     328.744E-03    -165.017E-03     45.5590E-03     359.059E-03     108.547E+06     58.7984E+06    -5.21907E+06    -62.4398E+06    -61.5317E+06    -6.12718E+06     58.7984E+06     6.14452E+06
            1560     107.470E-03     10.1820E-03     106.986E-03     329.385E-03    -164.414E-03    -164.971E-03    -163.187E-03     328.158E-03    -164.971E-03     49.1212E-03     363.268E-03     120.483E+06     77.8465E+06     55.7662E+06    -51.0413E+06    -50.6448E+06     55.3698E+06     77.8465E+06     6.31408E+06
            1561     107.619E-03     11.0324E-03     107.052E-03     329.308E-03    -164.411E-03    -164.897E-03    -162.985E-03     327.882E-03    -164.897E-03     52.9641E-03     368.833E-03     131.252E+06     94.6448E+06     84.5456E+06    -41.3088E+06    -41.0036E+06     91.5306E+06     87.3547E+06     6.24582E+06
            1562     107.777E-03     11.8819E-03     107.120E-03     329.860E-03    -164.751E-03    -165.108E-03    -163.252E-03     328.107E-03    -164.856E-03     58.6581E-03     377.019E-03     131.778E+06     103.690E+06     92.9548E+06    -33.0850E+06    -32.8477E+06     103.452E+06     92.9548E+06     5.63893E+06
            1563     107.954E-03     12.7306E-03     107.201E-03     330.112E-03    -164.855E-03    -165.257E-03    -163.311E-03     328.185E-03    -164.873E-03     61.6597E-03     383.857E-03     130.960E+06     108.871E+06     103.501E+06    -24.6819E+06    -24.5620E+06     108.751E+06     103.501E+06     3.74298E+06
            1564     108.131E-03     13.5792E-03     107.275E-03     331.306E-03    -164.897E-03    -166.409E-03    -163.470E-03     328.386E-03    -164.916E-03     74.7519E-03     400.455E-03     134.886E+06     120.101E+06     117.081E+06    -16.2653E+06    -16.2391E+06     118.980E+06     118.176E+06     1.75330E+06
            1565     108.353E-03     14.4293E-03     107.388E-03     331.025E-03    -164.693E-03    -166.332E-03    -163.354E-03     328.325E-03    -164.971E-03     70.9254E-03     400.214E-03     144.152E+06     137.309E+06     134.796E+06    -8.08233E+06    -8.07320E+06     134.786E+06     137.309E+06     1.08053E+06
            1566     108.033E-03     847.949E-06     108.030E-03     329.750E-03    -164.459E-03    -165.291E-03    -165.033E-03     329.746E-03    -164.713E-03     2.43009E-03     330.451E-03     192.222E+06    -176.594E+06    -182.882E+06    -371.831E+06    -182.323E+06    -371.811E+06    -177.174E+06     1.17730E+06
            1567     108.046E-03     1.69675E-03     108.033E-03     329.648E-03    -164.624E-03    -165.024E-03    -164.682E-03     329.630E-03    -164.949E-03     5.50993E-03     331.517E-03     185.746E+06    -154.754E+06    -174.630E+06    -349.453E+06    -174.642E+06    -349.440E+06    -154.754E+06     1.04386E+06
            1568     108.070E-03     2.54465E-03     108.040E-03     329.289E-03    -164.336E-03    -164.953E-03    -164.283E-03     329.236E-03    -164.953E-03     9.93686E-03     333.128E-03     174.419E+06    -126.673E+06    -163.729E+06    -316.428E+06    -163.748E+06    -316.409E+06    -126.673E+06     1.05542E+06
            1569     108.106E-03     3.39336E-03     108.052E-03     329.188E-03    -164.243E-03    -164.945E-03    -164.129E-03     329.074E-03    -164.945E-03     14.7782E-03     335.612E-03     163.998E+06    -96.2429E+06    -150.675E+06    -280.255E+06    -150.703E+06    -280.227E+06    -96.2429E+06     1.75630E+06
            1570     108.156E-03     4.24181E-03     108.073E-03     329.601E-03    -164.608E-03    -164.993E-03    -164.400E-03     329.394E-03    -164.993E-03     20.0106E-03     339.055E-03     154.473E+06     -66.668E+06    -136.591E+06    -243.483E+06    -136.617E+06    -243.457E+06     -66.668E+06     1.66198E+06
            1571     108.217E-03     5.08927E-03     108.097E-03     329.666E-03    -164.606E-03    -165.060E-03    -164.274E-03     329.334E-03    -165.060E-03     25.4539E-03     342.345E-03     143.402E+06    -40.8715E+06    -122.825E+06    -206.148E+06    -122.902E+06    -206.071E+06    -40.8715E+06     2.17756E+06
            1572     108.292E-03     5.94010E-03     108.129E-03     329.542E-03    -164.448E-03    -165.094E-03    -163.981E-03     329.075E-03    -165.094E-03     30.2716E-03     345.404E-03     132.839E+06    -16.8248E+06    -109.372E+06    -168.624E+06    -109.592E+06    -168.405E+06    -16.8248E+06     3.30484E+06
            1573     108.382E-03     6.78714E-03     108.169E-03     329.552E-03    -164.453E-03    -165.099E-03    -163.854E-03     328.953E-03    -165.099E-03     34.3137E-03     348.605E-03     123.567E+06     4.55841E+06    -95.9090E+06    -133.068E+06    -96.4168E+06    -132.560E+06     4.55841E+06     4.01051E+06
            1574     108.482E-03     7.63549E-03     108.213E-03     329.534E-03    -164.447E-03    -165.087E-03    -163.709E-03     328.796E-03    -165.087E-03     38.1012E-03     351.797E-03     114.066E+06     24.0920E+06    -78.1336E+06    -98.7658E+06    -84.3526E+06    -92.5468E+06     24.0920E+06     4.76420E+06
            1575     108.595E-03     8.48488E-03     108.263E-03     329.545E-03    -164.480E-03    -165.065E-03    -163.580E-03     328.645E-03    -165.065E-03     42.1022E-03     355.043E-03     107.800E+06     41.3565E+06    -55.1093E+06    -74.7484E+06    -72.9900E+06    -56.8676E+06     41.3565E+06     5.28873E+06
            1576     108.720E-03     9.33378E-03     108.318E-03     329.610E-03    -164.588E-03    -165.021E-03    -163.515E-03     328.537E-03    -165.021E-03     45.9659E-03     358.860E-03     108.287E+06     58.1563E+06    -7.84586E+06    -62.4837E+06    -61.6323E+06    -8.69731E+06     58.1563E+06     5.88304E+06
            1577     108.853E-03     10.1827E-03     108.376E-03     329.592E-03    -164.598E-03    -164.994E-03    -163.373E-03     328.345E-03    -164.972E-03     49.5406E-03     363.487E-03     119.394E+06     77.2376E+06     53.3546E+06    -51.1820E+06    -50.6949E+06     52.8676E+06     77.2376E+06     7.05253E+06
            1578     109.000E-03     11.0315E-03     108.440E-03     329.428E-03    -164.500E-03    -164.929E-03    -163.076E-03     327.983E-03    -164.907E-03     53.3192E-03     368.834E-03     130.738E+06     94.5406E+06     83.0853E+06    -41.5047E+06    -40.9971E+06     90.2321E+06     86.8862E+06     8.11265E+06
            1579     109.159E-03     11.8806E-03     108.511E-03     329.521E-03    -164.654E-03    -164.867E-03    -162.906E-03     327.760E-03    -164.854E-03     58.7900E-03     376.481E-03     133.311E+06     105.943E+06     93.2190E+06    -33.2466E+06    -32.8842E+06     105.580E+06     93.2190E+06     6.80753E+06
            1580     109.332E-03     12.7310E-03     108.588E-03     329.789E-03    -164.816E-03    -164.973E-03    -163.028E-03     327.882E-03    -164.854E-03     61.3034E-03     383.387E-03     133.532E+06     112.336E+06     104.765E+06    -24.7959E+06    -24.6672E+06     112.207E+06     104.765E+06     4.05964E+06
            1581     109.511E-03     13.5818E-03     108.665E-03     331.552E-03    -164.884E-03    -166.667E-03    -163.752E-03     328.655E-03    -164.903E-03     74.4883E-03     400.432E-03     136.704E+06     122.190E+06     118.138E+06    -16.4922E+06    -16.4450E+06     120.592E+06     119.688E+06     2.43768E+06
            1582     109.733E-03     14.4287E-03     108.781E-03     331.063E-03    -164.434E-03    -166.630E-03    -163.425E-03     328.396E-03    -164.971E-03     70.4416E-03     400.107E-03     145.651E+06     138.578E+06     135.708E+06    -8.48647E+06    -8.47102E+06     135.692E+06     138.578E+06     1.39024E+06
            1583     109.421E-03     847.851E-06     109.418E-03     329.528E-03    -164.321E-03    -165.207E-03    -165.060E-03     329.521E-03    -164.462E-03     2.84665E-03     330.213E-03     193.181E+06    -177.687E+06    -183.121E+06    -373.479E+06    -183.021E+06    -373.472E+06    -177.794E+06    -321.331E+03
            1584     109.435E-03     1.69607E-03     109.422E-03     329.377E-03    -164.524E-03    -164.852E-03    -164.534E-03     329.357E-03    -164.823E-03     5.95392E-03     331.242E-03     186.582E+06    -156.582E+06    -175.053E+06    -351.546E+06    -175.064E+06    -351.535E+06    -156.582E+06     706.436E+03
            1585     109.458E-03     2.54514E-03     109.429E-03     329.304E-03    -164.446E-03    -164.858E-03    -164.395E-03     329.254E-03    -164.858E-03     9.73211E-03     333.131E-03     174.982E+06    -127.274E+06    -164.075E+06    -317.441E+06    -164.087E+06    -317.430E+06    -127.274E+06     1.26333E+06
            1586     109.494E-03     3.39368E-03     109.441E-03     329.211E-03    -164.310E-03    -164.900E-03    -164.195E-03     329.096E-03    -164.900E-03     14.7649E-03     335.631E-03     165.211E+06    -96.6479E+06    -150.918E+06    -281.962E+06    -150.930E+06    -281.949E+06    -96.6479E+06     1.12095E+06
            1587     109.544E-03     4.24243E-03     109.461E-03     329.311E-03    -164.372E-03    -164.939E-03    -164.166E-03     329.105E-03    -164.939E-03     19.9915E-03     338.768E-03     155.089E+06    -68.1062E+06    -137.361E+06    -245.440E+06    -137.418E+06    -245.384E+06    -68.1062E+06     1.93016E+06
            1588     109.605E-03     5.09177E-03     109.487E-03     329.798E-03    -164.750E-03    -165.048E-03    -164.464E-03     329.476E-03    -165.013E-03     25.0509E-03     342.441E-03     144.575E+06    -41.6159E+06    -124.316E+06    -208.248E+06    -124.433E+06    -208.132E+06    -41.6159E+06     2.83531E+06
            1589     109.680E-03     5.93713E-03     109.520E-03     329.860E-03    -164.735E-03    -165.125E-03    -164.311E-03     329.401E-03    -165.090E-03     30.0126E-03     345.725E-03     133.796E+06    -17.9695E+06    -110.836E+06    -170.946E+06    -111.009E+06    -170.773E+06    -17.9695E+06     3.08117E+06
            1590     109.769E-03     6.78693E-03     109.559E-03     329.481E-03    -164.371E-03    -165.111E-03    -163.758E-03     328.869E-03    -165.111E-03     34.6808E-03     348.509E-03     124.192E+06     2.96044E+06    -97.4742E+06    -135.555E+06    -97.8495E+06    -135.180E+06     2.96044E+06     3.49828E+06
            1591     109.868E-03     7.63618E-03     109.603E-03     329.547E-03    -164.459E-03    -165.088E-03    -163.680E-03     328.768E-03    -165.088E-03     39.1410E-03     351.701E-03     114.636E+06     22.5469E+06    -80.1399E+06    -100.904E+06    -85.4029E+06    -95.6414E+06     22.5469E+06     4.68187E+06
            1592     109.981E-03     8.48411E-03     109.653E-03     329.549E-03    -164.487E-03    -165.062E-03    -163.566E-03     328.628E-03    -165.062E-03     42.5923E-03     355.085E-03     108.049E+06     40.1695E+06    -56.2907E+06    -76.2225E+06    -73.8152E+06    -58.6979E+06     40.1695E+06     5.73913E+06
            1593     110.102E-03     9.33389E-03     109.706E-03     329.211E-03    -164.209E-03    -165.001E-03    -163.126E-03     328.128E-03    -165.001E-03     46.1326E-03     358.559E-03     108.143E+06     56.8825E+06    -9.97377E+06    -63.9943E+06    -63.0424E+06    -10.9257E+06     56.8825E+06     6.06223E+06
            1594     110.239E-03     10.1833E-03     109.767E-03     329.340E-03    -164.390E-03    -164.950E-03    -163.137E-03     328.066E-03    -164.928E-03     50.0724E-03     363.258E-03     118.512E+06     75.1191E+06     48.1288E+06    -53.4684E+06    -52.8413E+06     47.5017E+06     75.1191E+06     7.83098E+06
            1595     110.382E-03     11.0320E-03     109.829E-03     329.663E-03    -164.653E-03    -165.010E-03    -163.322E-03     328.183E-03    -164.860E-03     53.9843E-03     369.104E-03     131.966E+06     95.2271E+06     79.3005E+06    -43.9028E+06    -43.2412E+06     88.8471E+06     85.0190E+06     9.12233E+06
            1596     110.540E-03     11.8821E-03     109.899E-03     329.883E-03    -164.712E-03    -165.170E-03    -163.279E-03     328.110E-03    -164.831E-03     59.0481E-03     376.746E-03     137.175E+06     110.467E+06     93.2095E+06    -34.4666E+06    -34.0965E+06     110.096E+06     93.2095E+06     7.01748E+06
            1597     110.712E-03     12.7311E-03     109.977E-03     330.159E-03    -164.845E-03    -165.314E-03    -163.396E-03     328.260E-03    -164.864E-03     61.2139E-03     383.791E-03     136.576E+06     115.383E+06     105.539E+06    -25.7981E+06    -25.6437E+06     115.228E+06     105.539E+06     4.62769E+06
            1598     110.890E-03     13.5784E-03     110.056E-03     331.091E-03    -164.914E-03    -166.177E-03    -163.279E-03     328.193E-03    -164.914E-03     74.4110E-03     400.181E-03     138.581E+06     123.415E+06     119.305E+06    -17.1681E+06    -17.0945E+06     122.026E+06     120.620E+06     3.03853E+06
            1599     111.111E-03     14.4300E-03     110.170E-03     330.528E-03    -164.549E-03    -165.979E-03    -162.904E-03     327.859E-03    -164.955E-03     70.3620E-03     399.623E-03     147.165E+06     139.909E+06     137.276E+06    -8.55392E+06    -8.53676E+06     137.259E+06     139.909E+06     1.33472E+06
            1600     110.810E-03     849.215E-06     110.807E-03     328.784E-03    -164.201E-03    -164.583E-03    -164.576E-03     328.776E-03    -164.201E-03     3.05358E-03     329.439E-03     193.622E+06    -176.886E+06    -182.952E+06    -373.404E+06    -182.852E+06    -373.398E+06    -176.993E+06     283.669E+03
            1601     110.823E-03     1.69753E-03     110.810E-03     329.442E-03    -164.548E-03    -164.893E-03    -164.838E-03     329.421E-03    -164.584E-03     6.15019E-03     331.287E-03     187.341E+06    -156.982E+06    -175.443E+06    -352.769E+06    -175.460E+06    -352.752E+06    -156.982E+06    -237.006E+03
            1602     110.847E-03     2.54515E-03     110.817E-03     329.647E-03    -164.675E-03    -164.973E-03    -164.784E-03     329.600E-03    -164.816E-03     9.45344E-03     333.502E-03     175.937E+06    -129.548E+06    -164.016E+06    -319.900E+06    -164.034E+06    -319.882E+06    -129.548E+06     402.086E+03
            1603     110.882E-03     3.39332E-03     110.831E-03     329.429E-03    -164.482E-03    -164.948E-03    -164.377E-03     329.325E-03    -164.948E-03     14.0903E-03     335.880E-03     165.179E+06    -98.1846E+06    -151.656E+06    -283.144E+06    -151.677E+06    -283.123E+06    -98.1846E+06     1.45669E+06
            1604     110.931E-03     4.24184E-03     110.850E-03     329.344E-03    -164.342E-03    -165.002E-03    -164.141E-03     329.143E-03    -165.002E-03     19.6676E-03     338.775E-03     157.268E+06    -68.7686E+06    -138.190E+06    -248.577E+06    -138.251E+06    -248.516E+06    -68.7686E+06     2.02868E+06
            1605     110.994E-03     5.08934E-03     110.877E-03     329.373E-03    -164.312E-03    -165.061E-03    -164.018E-03     329.044E-03    -165.026E-03     25.3099E-03     342.011E-03     146.333E+06    -42.0514E+06    -123.777E+06    -210.578E+06    -123.926E+06    -210.428E+06    -42.0514E+06     3.04928E+06
            1606     111.069E-03     5.93977E-03     110.910E-03     329.360E-03    -164.293E-03    -165.067E-03    -163.847E-03     328.880E-03    -165.033E-03     30.6769E-03     345.211E-03     134.340E+06    -18.4233E+06    -110.711E+06    -172.211E+06    -110.916E+06    -172.006E+06    -18.4233E+06     3.37689E+06
            1607     111.154E-03     6.78749E-03     110.947E-03     329.563E-03    -164.481E-03    -165.082E-03    -163.888E-03     328.923E-03    -165.035E-03     35.4806E-03     348.516E-03     125.123E+06     1.91795E+06    -98.1519E+06    -137.987E+06    -98.6685E+06    -137.471E+06     1.91795E+06     3.94596E+06
            1608     111.255E-03     7.63624E-03     110.993E-03     329.460E-03    -164.389E-03    -165.071E-03    -163.650E-03     328.673E-03    -165.024E-03     39.3457E-03     351.535E-03     115.174E+06     20.5232E+06    -83.0020E+06    -103.173E+06    -87.1604E+06    -99.0143E+06     20.5232E+06     4.90167E+06
            1609     111.366E-03     8.48584E-03     111.042E-03     329.331E-03    -164.338E-03    -164.993E-03    -163.397E-03     328.389E-03    -164.993E-03     43.0221E-03     354.816E-03     108.345E+06     38.0771E+06    -59.0096E+06    -78.3245E+06    -75.5794E+06    -61.7546E+06     38.0771E+06     6.05071E+06
            1610     111.487E-03     9.33373E-03     111.096E-03     329.370E-03    -164.395E-03    -164.976E-03    -163.324E-03     328.265E-03    -164.941E-03     46.6330E-03     358.680E-03     108.989E+06     55.5146E+06    -11.6840E+06    -66.6007E+06    -65.2582E+06    -13.0265E+06     55.5146E+06     7.28352E+06
            1611     111.620E-03     10.1838E-03     111.154E-03     329.294E-03    -164.376E-03    -164.918E-03    -163.135E-03     328.019E-03    -164.884E-03     50.0750E-03     363.254E-03     117.830E+06     73.2720E+06     43.1059E+06    -55.8417E+06    -55.1208E+06     42.3851E+06     73.2720E+06     8.05071E+06
            1612     111.767E-03     11.0339E-03     111.221E-03     329.545E-03    -164.604E-03    -164.941E-03    -163.284E-03     328.096E-03    -164.813E-03     53.4226E-03     369.105E-03     132.476E+06     96.9126E+06     75.5769E+06    -44.8800E+06    -44.3069E+06     88.1930E+06     83.7234E+06     8.42559E+06
            1613     111.921E-03     11.8813E-03     111.288E-03     330.245E-03    -164.804E-03    -165.441E-03    -163.662E-03     328.465E-03    -164.804E-03     59.1327E-03     377.295E-03     140.370E+06     114.040E+06     94.0153E+06    -35.1474E+06    -34.7784E+06     113.671E+06     94.0153E+06     7.30119E+06
            1614     112.094E-03     12.7299E-03     111.369E-03     330.183E-03    -164.684E-03    -165.498E-03    -163.372E-03     328.228E-03    -164.856E-03     62.0899E-03     384.058E-03     138.695E+06     117.629E+06     107.124E+06    -25.9869E+06    -25.7969E+06     117.439E+06     107.124E+06     5.00501E+06
            1615     112.269E-03     13.5808E-03     111.445E-03     330.674E-03    -164.716E-03    -165.958E-03    -162.838E-03     327.726E-03    -164.888E-03     74.9830E-03     400.011E-03     140.400E+06     124.874E+06     120.575E+06    -17.5966E+06    -17.5306E+06     124.179E+06     121.204E+06     2.90102E+06
            1616     112.486E-03     14.4306E-03     111.557E-03     330.630E-03    -164.772E-03    -165.858E-03    -162.986E-03     327.906E-03    -164.920E-03     71.1126E-03     399.815E-03     148.795E+06     140.767E+06     139.216E+06    -8.79663E+06    -8.78086E+06     139.200E+06     140.767E+06     1.22599E+06
            1617     112.197E-03     848.764E-06     112.194E-03     329.005E-03    -164.232E-03    -164.774E-03    -164.645E-03     329.000E-03    -164.355E-03     2.61737E-03     329.663E-03     193.986E+06    -177.925E+06    -183.462E+06    -374.569E+06    -183.229E+06    -374.565E+06    -178.163E+06     635.256E+03
            1618     112.212E-03     1.69693E-03     112.199E-03     329.361E-03    -164.433E-03    -164.928E-03    -164.693E-03     329.341E-03    -164.648E-03     5.95026E-03     331.194E-03     187.164E+06    -156.496E+06    -175.711E+06    -352.346E+06    -175.736E+06    -352.321E+06    -156.496E+06     557.018E+03
            1619     112.237E-03     2.54476E-03     112.208E-03     329.679E-03    -164.691E-03    -164.988E-03    -164.797E-03     329.628E-03    -164.831E-03     9.83026E-03     333.542E-03     176.677E+06    -129.974E+06    -165.737E+06    -321.602E+06    -165.766E+06    -321.573E+06    -129.974E+06     50.7457E+03
            1620     112.271E-03     3.39275E-03     112.219E-03     329.643E-03    -164.668E-03    -164.974E-03    -164.556E-03     329.530E-03    -164.974E-03     14.6488E-03     336.112E-03     166.095E+06    -100.088E+06    -152.800E+06    -285.824E+06    -152.823E+06    -285.801E+06    -100.088E+06     827.099E+03
            1621     112.319E-03     4.24126E-03     112.239E-03     329.227E-03    -164.198E-03    -165.029E-03    -163.982E-03     329.011E-03    -165.029E-03     20.4038E-03     338.651E-03     157.975E+06    -69.9687E+06    -138.660E+06    -250.426E+06    -138.699E+06    -250.387E+06    -69.9687E+06     1.85214E+06
            1622     112.381E-03     5.09089E-03     112.266E-03     328.840E-03    -163.849E-03    -164.991E-03    -163.508E-03     328.499E-03    -164.991E-03     25.8005E-03     341.448E-03     147.213E+06    -43.8378E+06    -124.728E+06    -213.393E+06    -124.840E+06    -213.281E+06    -43.8378E+06     2.37056E+06
            1623     112.454E-03     5.93943E-03     112.297E-03     329.062E-03    -164.114E-03    -164.949E-03    -163.642E-03     328.590E-03    -164.949E-03     30.4237E-03     344.896E-03     134.999E+06    -19.8443E+06    -111.011E+06    -174.595E+06    -111.299E+06    -174.307E+06    -19.8443E+06     3.58265E+06
            1624     112.543E-03     6.78903E-03     112.338E-03     329.381E-03    -164.388E-03    -164.992E-03    -163.810E-03     328.755E-03    -164.946E-03     35.0376E-03     348.350E-03     126.147E+06     1.12478E+06    -98.1106E+06    -140.499E+06    -98.7067E+06    -139.902E+06     1.12478E+06     4.53045E+06
            1625     112.641E-03     7.63661E-03     112.382E-03     329.327E-03    -164.341E-03    -164.986E-03    -163.605E-03     328.544E-03    -164.939E-03     39.2485E-03     351.464E-03     115.935E+06     20.5176E+06    -82.6918E+06    -104.459E+06    -86.1849E+06    -100.966E+06     20.5176E+06     4.93678E+06
            1626     112.750E-03     8.48583E-03     112.430E-03     329.277E-03    -164.363E-03    -164.914E-03    -163.431E-03     328.345E-03    -164.914E-03     42.8110E-03     354.745E-03     108.485E+06     37.1915E+06    -61.9475E+06    -78.5128E+06    -74.9274E+06    -65.5329E+06     37.1915E+06     5.76263E+06
            1627     112.873E-03     9.33634E-03     112.486E-03     329.544E-03    -164.628E-03    -164.915E-03    -163.579E-03     328.460E-03    -164.881E-03     46.1995E-03     358.761E-03     107.649E+06     54.4699E+06    -15.8496E+06    -65.4676E+06    -63.8893E+06    -17.4279E+06     54.4699E+06     7.74510E+06
            1628     113.004E-03     10.1835E-03     112.544E-03     329.692E-03    -164.750E-03    -164.942E-03    -163.579E-03     328.437E-03    -164.858E-03     49.7315E-03     363.523E-03     116.341E+06     73.4960E+06     41.9426E+06    -54.2523E+06    -53.4109E+06     41.1012E+06     73.4960E+06     8.56308E+06
            1629     113.148E-03     11.0319E-03     112.609E-03     329.422E-03    -164.567E-03    -164.855E-03    -163.161E-03     327.966E-03    -164.806E-03     53.5214E-03     368.871E-03     131.821E+06     96.3906E+06     76.2429E+06    -44.2975E+06    -43.8035E+06     87.5772E+06     84.5623E+06     7.77687E+06
            1630     113.304E-03     11.8828E-03     112.679E-03     329.599E-03    -164.531E-03    -165.068E-03    -163.006E-03     327.776E-03    -164.769E-03     59.7711E-03     376.606E-03     139.863E+06     114.718E+06     95.6284E+06    -33.6171E+06    -33.2453E+06     114.347E+06     95.6284E+06     7.34813E+06
            1631     113.476E-03     12.7319E-03     112.759E-03     329.721E-03    -164.510E-03    -165.211E-03    -162.965E-03     327.747E-03    -164.783E-03     62.3421E-03     383.441E-03     139.013E+06     120.234E+06     108.536E+06    -24.2266E+06    -23.9936E+06     120.001E+06     108.536E+06     5.55736E+06
            1632     113.646E-03     13.5812E-03     112.832E-03     331.150E-03    -164.651E-03    -166.499E-03    -163.383E-03     328.206E-03    -164.823E-03     74.9929E-03     400.335E-03     141.369E+06     127.224E+06     122.647E+06    -16.3256E+06    -16.2397E+06     126.997E+06     122.789E+06     3.35437E+06
            1633     113.866E-03     14.4308E-03     112.948E-03     331.101E-03    -164.664E-03    -166.437E-03    -163.491E-03     328.383E-03    -164.892E-03     71.0501E-03     400.262E-03     150.071E+06     142.298E+06     141.796E+06    -8.02245E+06    -7.99248E+06     141.766E+06     142.298E+06     1.76461E+06
            1634     113.585E-03     847.389E-06     113.582E-03     329.697E-03    -164.398E-03    -165.299E-03    -164.670E-03     329.691E-03    -165.021E-03     2.74442E-03     330.352E-03     193.409E+06    -179.578E+06    -185.766E+06    -375.966E+06    -185.535E+06    -375.960E+06    -179.815E+06     489.721E+03
            1635     113.601E-03     1.69643E-03     113.588E-03     329.040E-03    -164.217E-03    -164.822E-03    -164.194E-03     329.017E-03    -164.822E-03     6.45871E-03     330.879E-03     185.938E+06    -159.167E+06    -178.037E+06    -353.648E+06    -178.050E+06    -353.634E+06    -159.167E+06     769.429E+03
            1636     113.625E-03     2.54558E-03     113.596E-03     328.986E-03    -164.234E-03    -164.752E-03    -164.174E-03     328.926E-03    -164.752E-03     10.6616E-03     332.820E-03     175.747E+06    -130.940E+06    -167.502E+06    -321.836E+06    -167.526E+06    -321.811E+06    -130.940E+06     935.453E+03
            1637     113.660E-03     3.39389E-03     113.610E-03     329.356E-03    -164.549E-03    -164.807E-03    -164.422E-03     329.229E-03    -164.807E-03     15.5877E-03     335.821E-03     165.373E+06    -101.905E+06    -155.027E+06    -287.103E+06    -155.041E+06    -287.090E+06    -101.905E+06     349.498E+03
            1638     113.707E-03     4.24187E-03     113.628E-03     329.263E-03    -164.365E-03    -164.898E-03    -164.157E-03     329.047E-03    -164.889E-03     20.5173E-03     338.738E-03     156.614E+06    -73.6360E+06    -141.432E+06    -252.461E+06    -141.456E+06    -252.438E+06    -73.6360E+06      974.34E+03
            1639     113.767E-03     5.09099E-03     113.653E-03     329.075E-03    -164.145E-03    -164.930E-03    -163.819E-03     328.740E-03    -164.921E-03     25.5451E-03     341.698E-03     146.522E+06    -46.1370E+06    -127.364E+06    -214.920E+06    -127.414E+06    -214.870E+06    -46.1370E+06     1.59585E+06
            1640     113.843E-03     5.93985E-03     113.688E-03     329.092E-03    -164.173E-03    -164.919E-03    -163.696E-03     328.615E-03    -164.919E-03     30.5569E-03     344.900E-03     135.552E+06    -21.8168E+06    -113.009E+06    -177.315E+06    -113.199E+06    -177.124E+06    -21.8168E+06     2.13234E+06
            1641     113.928E-03     6.78757E-03     113.726E-03     328.931E-03    -164.032E-03    -164.899E-03    -163.414E-03     328.313E-03    -164.899E-03     34.8112E-03     347.904E-03     126.492E+06    -486.591E+03    -98.8889E+06    -142.832E+06    -99.2411E+06    -142.480E+06    -486.591E+03     3.05123E+06
            1642     114.027E-03     7.63872E-03     113.771E-03     329.046E-03    -164.182E-03    -164.864E-03    -163.406E-03     328.270E-03    -164.864E-03     39.0304E-03     351.136E-03     116.224E+06     19.0355E+06    -84.0369E+06    -106.382E+06    -86.5161E+06    -103.903E+06     19.0355E+06     4.46115E+06
            1643     114.136E-03     8.48663E-03     113.821E-03     329.616E-03    -164.565E-03    -165.050E-03    -163.826E-03     328.682E-03    -164.856E-03     42.9016E-03     354.991E-03     108.696E+06     36.2184E+06    -63.6334E+06    -79.4131E+06    -75.1369E+06    -67.9095E+06     36.2184E+06     5.83555E+06
            1644     114.256E-03     9.33399E-03     113.874E-03     329.680E-03    -164.633E-03    -165.046E-03    -163.738E-03     328.589E-03    -164.852E-03     46.3391E-03     358.906E-03     105.622E+06     53.2042E+06    -19.7595E+06    -64.6463E+06    -63.2513E+06    -21.1544E+06     53.2042E+06     6.25843E+06
            1645     114.390E-03     10.1844E-03     113.936E-03     329.416E-03    -164.540E-03    -164.876E-03    -163.320E-03     328.147E-03    -164.827E-03     49.9776E-03     363.198E-03     112.969E+06     73.1011E+06     38.6983E+06    -51.6804E+06    -50.9425E+06     37.9605E+06     73.1011E+06     7.94903E+06
            1646     114.531E-03     11.0337E-03     113.998E-03     329.415E-03    -164.460E-03    -164.955E-03    -163.164E-03     327.934E-03    -164.770E-03     53.9850E-03     368.755E-03     130.455E+06     97.0817E+06     76.9011E+06    -42.2489E+06    -41.5240E+06     87.3262E+06     85.9317E+06     9.34308E+06
            1647     114.685E-03     11.8823E-03     114.068E-03     329.258E-03    -164.400E-03    -164.857E-03    -162.752E-03     327.473E-03    -164.721E-03     59.1762E-03     376.105E-03     141.132E+06     115.660E+06     95.2450E+06    -34.5437E+06    -34.1112E+06     115.227E+06     95.2450E+06     7.62357E+06
            1648     114.855E-03     12.7336E-03     114.147E-03     329.481E-03    -164.541E-03    -164.940E-03    -162.840E-03     327.564E-03    -164.724E-03     61.4277E-03     382.873E-03     141.879E+06     122.717E+06     107.915E+06    -25.9434E+06    -25.7299E+06     122.503E+06     107.915E+06     5.56339E+06
            1649     115.028E-03     13.5826E-03     114.223E-03     331.495E-03    -164.784E-03    -166.711E-03    -163.787E-03     328.571E-03    -164.784E-03     74.8402E-03     400.287E-03     144.028E+06     129.592E+06     123.685E+06    -17.2212E+06    -17.0982E+06     129.467E+06     123.687E+06     4.18623E+06
            1650     115.245E-03     14.4304E-03     114.338E-03     331.048E-03    -164.466E-03    -166.582E-03    -163.490E-03     328.362E-03    -164.872E-03     70.6449E-03     400.098E-03     152.765E+06     144.349E+06     143.615E+06    -8.78072E+06    -8.73455E+06     144.287E+06     143.630E+06     2.35393E+06
            1651     114.976E-03     848.638E-06     114.973E-03     329.261E-03    -163.894E-03    -165.367E-03    -164.859E-03     329.253E-03    -164.393E-03     3.84680E-03     329.909E-03     190.768E+06    -182.259E+06    -189.189E+06    -376.373E+06    -187.994E+06    -376.359E+06    -183.467E+06    -219.653E+03
            1652     114.988E-03     1.69641E-03     114.975E-03     328.917E-03    -164.262E-03    -164.655E-03    -164.242E-03     328.893E-03    -164.651E-03     6.61015E-03     330.769E-03     183.736E+06    -163.102E+06    -180.650E+06    -354.853E+06    -180.655E+06    -354.849E+06    -163.102E+06    -481.521E+03
            1653     115.012E-03     2.54573E-03     114.984E-03     328.609E-03    -163.994E-03    -164.614E-03    -163.935E-03     328.548E-03    -164.613E-03     10.6764E-03     332.440E-03     173.936E+06    -135.125E+06    -169.592E+06    -323.449E+06    -169.604E+06    -323.438E+06    -135.125E+06     251.899E+03
            1654     115.049E-03     3.39476E-03     114.998E-03     328.712E-03    -164.089E-03    -164.623E-03    -163.968E-03     328.590E-03    -164.623E-03     15.2960E-03     335.143E-03     162.977E+06    -103.978E+06    -156.995E+06    -286.574E+06    -157.003E+06    -286.566E+06    -103.978E+06     620.360E+03
            1655     115.095E-03     4.24350E-03     115.017E-03     329.203E-03    -164.488E-03    -164.715E-03    -164.276E-03     328.983E-03    -164.706E-03     20.6384E-03     338.672E-03     155.489E+06    -75.0304E+06    -143.455E+06    -252.806E+06    -143.458E+06    -252.804E+06    -75.0304E+06    -162.201E+03
            1656     115.156E-03     5.09058E-03     115.043E-03     329.363E-03    -164.549E-03    -164.814E-03    -164.204E-03     329.010E-03    -164.805E-03     26.2576E-03     342.035E-03     145.627E+06    -48.6377E+06    -129.125E+06    -216.386E+06    -129.158E+06    -216.354E+06    -48.6377E+06     261.645E+03
            1657     115.228E-03     5.93943E-03     115.075E-03     328.930E-03    -164.087E-03    -164.844E-03    -163.593E-03     328.437E-03    -164.844E-03     31.0891E-03     344.738E-03     134.857E+06    -23.9063E+06    -114.866E+06    -178.536E+06    -114.920E+06    -178.482E+06    -23.9063E+06     821.472E+03
            1658     115.316E-03     6.78989E-03     115.116E-03     328.825E-03    -164.002E-03    -164.823E-03    -163.366E-03     328.188E-03    -164.823E-03     35.3363E-03     347.755E-03     126.531E+06    -3.44315E+06    -101.901E+06    -145.886E+06    -102.036E+06    -145.752E+06    -3.44315E+06     1.49044E+06
            1659     115.411E-03     7.63690E-03     115.158E-03     329.161E-03    -164.307E-03    -164.854E-03    -163.565E-03     328.365E-03    -164.799E-03     39.5491E-03     351.124E-03     116.351E+06     15.6493E+06    -87.8236E+06    -109.554E+06    -89.6816E+06    -107.697E+06     15.6493E+06     3.23295E+06
            1660     115.522E-03     8.48738E-03     115.210E-03     329.390E-03    -164.344E-03    -165.046E-03    -163.639E-03     328.436E-03    -164.797E-03     43.3272E-03     354.665E-03     108.166E+06     34.0724E+06    -66.4437E+06    -80.2105E+06    -76.9274E+06    -69.7268E+06     34.0724E+06     4.43302E+06
            1661     115.643E-03     9.33621E-03     115.265E-03     329.335E-03    -164.364E-03    -164.971E-03    -163.434E-03     328.210E-03    -164.777E-03     47.0361E-03     358.513E-03     105.867E+06     51.2468E+06    -22.1476E+06    -66.6302E+06    -65.6989E+06    -23.0789E+06     51.2468E+06     5.22307E+06
            1662     115.771E-03     10.1842E-03     115.322E-03     329.298E-03    -164.420E-03    -164.878E-03    -163.242E-03     327.981E-03    -164.739E-03     50.8983E-03     363.033E-03     112.753E+06     68.9799E+06     32.4341E+06    -56.3843E+06    -55.8075E+06     31.8572E+06     68.9799E+06     6.97644E+06
            1663     115.915E-03     11.0343E-03     115.388E-03     329.421E-03    -164.461E-03    -164.960E-03    -163.238E-03     327.923E-03    -164.685E-03     54.3069E-03     368.724E-03     131.183E+06     96.0236E+06     71.8791E+06    -45.5528E+06    -44.8697E+06     84.5182E+06     82.7014E+06     9.28103E+06
            1664     116.067E-03     11.8834E-03     115.457E-03     329.656E-03    -164.530E-03    -165.126E-03    -163.211E-03     327.875E-03    -164.664E-03     59.1752E-03     376.540E-03     144.469E+06     119.571E+06     95.3636E+06    -35.4459E+06    -34.8798E+06     119.005E+06     95.3636E+06     9.02692E+06
            1665     116.233E-03     12.7319E-03     115.534E-03     329.990E-03    -164.622E-03    -165.368E-03    -163.323E-03     328.027E-03    -164.705E-03     62.2256E-03     383.507E-03     144.923E+06     125.532E+06     108.026E+06    -27.2992E+06    -26.9906E+06     125.224E+06     108.026E+06     6.60919E+06
            1666     116.410E-03     13.5815E-03     115.615E-03     331.085E-03    -164.772E-03    -166.313E-03    -163.390E-03     328.162E-03    -164.772E-03     74.9473E-03     400.048E-03     146.628E+06     131.698E+06     123.915E+06    -18.5838E+06    -18.4535E+06     131.567E+06     123.915E+06     4.12161E+06
            1667     116.624E-03     14.4319E-03     115.727E-03     330.561E-03    -164.519E-03    -166.042E-03    -163.064E-03     327.904E-03    -164.840E-03     70.3571E-03     399.698E-03     155.089E+06     146.829E+06     144.522E+06    -9.39909E+06    -9.36928E+06     146.800E+06     144.522E+06     1.71742E+06
            1668     116.362E-03     848.640E-06     116.359E-03     328.380E-03    -163.586E-03    -164.794E-03    -164.787E-03     328.373E-03    -163.586E-03     2.90865E-03     328.994E-03     187.211E+06    -184.655E+06    -190.808E+06    -374.857E+06    -189.611E+06    -374.845E+06    -185.863E+06    -1.30198E+06
            1669     116.376E-03     1.69795E-03     116.364E-03     328.669E-03    -164.316E-03    -164.353E-03    -164.329E-03     328.644E-03    -164.316E-03     6.67302E-03     330.521E-03     181.016E+06    -165.838E+06    -183.224E+06    -354.731E+06    -183.232E+06    -354.723E+06    -165.838E+06    -868.283E+03
            1670     116.400E-03     2.54538E-03     116.372E-03     328.627E-03    -164.164E-03    -164.463E-03    -164.122E-03     328.564E-03    -164.442E-03     10.9303E-03     332.462E-03     171.171E+06    -138.225E+06    -172.929E+06    -323.876E+06    -172.944E+06    -323.862E+06    -138.225E+06    -953.217E+03
            1671     116.435E-03     3.39448E-03     116.385E-03     328.367E-03    -163.872E-03    -164.495E-03    -163.743E-03     328.239E-03    -164.495E-03     15.6770E-03     334.771E-03     159.993E+06    -107.361E+06    -159.434E+06    -286.606E+06    -159.452E+06    -286.588E+06    -107.361E+06    -911.484E+03
            1672     116.483E-03     4.24342E-03     116.406E-03     328.568E-03    -164.028E-03    -164.540E-03    -163.797E-03     328.337E-03    -164.540E-03     21.1148E-03     337.972E-03     153.395E+06    -76.8346E+06    -145.167E+06    -252.312E+06    -145.178E+06    -252.301E+06    -76.8346E+06    -808.809E+03
            1673     116.544E-03     5.09306E-03     116.432E-03     328.847E-03    -164.249E-03    -164.598E-03    -163.886E-03     328.484E-03    -164.598E-03     26.5992E-03     341.449E-03     144.278E+06    -50.8404E+06    -131.343E+06    -217.093E+06    -131.362E+06    -217.075E+06    -50.8404E+06    -1.12537E+06
            1674     116.616E-03     5.94103E-03     116.465E-03     328.813E-03    -164.172E-03    -164.642E-03    -163.661E-03     328.302E-03    -164.642E-03     31.6200E-03     344.621E-03     133.537E+06    -27.2360E+06    -117.468E+06    -180.330E+06    -117.523E+06    -180.275E+06    -27.2360E+06    -673.023E+03
            1675     116.700E-03     6.78916E-03     116.502E-03     329.065E-03    -164.282E-03    -164.783E-03    -163.719E-03     328.392E-03    -164.673E-03     36.3534E-03     347.940E-03     125.561E+06    -5.65538E+06    -103.613E+06    -146.922E+06    -103.662E+06    -146.873E+06    -5.65538E+06     26.6763E+03
            1676     116.799E-03     7.63995E-03     116.549E-03     329.290E-03    -164.427E-03    -164.862E-03    -163.771E-03     328.469E-03    -164.698E-03     40.2040E-03     351.221E-03     115.952E+06     13.7179E+06     -89.286E+06    -111.193E+06    -89.7866E+06    -110.693E+06     13.7179E+06     729.685E+03
            1677     116.907E-03     8.48650E-03     116.599E-03     328.866E-03    -164.120E-03    -164.746E-03    -163.194E-03     327.886E-03    -164.691E-03     43.8512E-03     354.158E-03     107.644E+06     31.5326E+06    -69.0314E+06    -81.9167E+06    -77.1333E+06    -73.8149E+06     31.5326E+06     2.54029E+06
            1678     117.026E-03     9.33698E-03     116.653E-03     328.951E-03    -164.206E-03    -164.745E-03    -163.153E-03     327.801E-03    -164.648E-03     47.5349E-03     357.967E-03     104.800E+06     48.8982E+06    -26.8291E+06    -67.4101E+06    -66.5360E+06    -27.7032E+06     48.8982E+06     5.48195E+06
            1679     117.157E-03     10.1873E-03     116.713E-03     329.522E-03    -164.586E-03    -164.936E-03    -163.580E-03     328.204E-03    -164.624E-03     50.9405E-03     363.144E-03     112.617E+06     67.1089E+06     28.2510E+06    -58.2892E+06    -57.4200E+06     27.3818E+06     67.1089E+06     8.40006E+06
            1680     117.298E-03     11.0348E-03     116.777E-03     329.472E-03    -164.544E-03    -164.928E-03    -163.384E-03     327.980E-03    -164.596E-03     54.2096E-03     368.742E-03     133.079E+06     94.9481E+06     69.6262E+06    -48.9706E+06    -48.3429E+06     83.0596E+06     80.8870E+06     8.42966E+06
            1681     117.449E-03     11.8848E-03     116.846E-03     329.890E-03    -164.540E-03    -165.350E-03    -163.501E-03     328.092E-03    -164.592E-03     59.4496E-03     376.683E-03     146.991E+06     120.258E+06     93.2485E+06    -38.3555E+06    -37.9974E+06     119.900E+06     93.2485E+06     7.11376E+06
            1682     117.618E-03     12.7338E-03     116.926E-03     330.147E-03    -164.601E-03    -165.547E-03    -163.506E-03     328.160E-03    -164.654E-03     62.6397E-03     383.659E-03     146.344E+06     128.519E+06     107.681E+06    -27.0592E+06    -26.7812E+06     128.241E+06     107.681E+06     6.13598E+06
            1683     117.789E-03     13.5822E-03     117.003E-03     330.811E-03    -164.673E-03    -166.139E-03    -163.091E-03     327.816E-03    -164.726E-03     75.7172E-03     399.869E-03     147.148E+06     134.765E+06     125.147E+06    -16.8467E+06    -16.7225E+06     134.640E+06     125.147E+06     4.02880E+06
            1684     118.002E-03     14.4322E-03     117.116E-03     330.569E-03    -164.619E-03    -165.950E-03    -163.051E-03     327.840E-03    -164.789E-03     71.1524E-03     399.738E-03     155.989E+06     149.622E+06     146.245E+06    -8.02831E+06    -7.99858E+06     149.592E+06     146.245E+06     1.79585E+06
            1685     117.749E-03     849.214E-06     117.746E-03     327.721E-03    -163.317E-03    -164.404E-03    -163.584E-03     327.712E-03    -164.128E-03     3.13320E-03     328.334E-03     183.529E+06    -186.855E+06    -193.487E+06    -373.549E+06    -193.522E+06    -373.513E+06    -186.855E+06     219.999E+03
            1686     117.763E-03     1.69744E-03     117.751E-03     328.020E-03    -163.951E-03    -164.068E-03    -163.999E-03     327.992E-03    -163.993E-03     7.14144E-03     329.850E-03     177.629E+06    -166.949E+06    -185.903E+06    -353.148E+06    -185.919E+06    -353.133E+06    -166.949E+06    -1.31593E+06
            1687     117.787E-03     2.54710E-03     117.760E-03     328.202E-03    -164.038E-03    -164.164E-03    -163.989E-03     328.133E-03    -164.144E-03     11.3539E-03     332.010E-03     168.051E+06    -139.894E+06    -174.946E+06    -322.471E+06    -174.973E+06    -322.444E+06    -139.894E+06    -1.69568E+06
            1688     117.822E-03     3.39536E-03     117.773E-03     328.227E-03    -163.965E-03    -164.262E-03    -163.827E-03     328.088E-03    -164.262E-03     16.3264E-03     334.627E-03     156.800E+06    -109.774E+06    -161.847E+06    -285.721E+06    -161.913E+06    -285.655E+06    -109.774E+06    -2.58605E+06
            1689     117.870E-03     4.24461E-03     117.793E-03     328.040E-03    -163.710E-03    -164.330E-03    -163.467E-03     327.797E-03    -164.330E-03     21.6872E-03     337.393E-03     150.925E+06    -79.9428E+06    -147.367E+06    -252.637E+06    -147.455E+06    -252.548E+06    -79.9428E+06    -2.68295E+06
            1690     117.931E-03     5.09295E-03     117.820E-03     327.996E-03    -163.648E-03    -164.348E-03    -163.277E-03     327.625E-03    -164.348E-03     26.8888E-03     340.512E-03     142.344E+06    -52.8780E+06    -132.787E+06    -216.871E+06    -132.865E+06    -216.793E+06    -52.8780E+06    -2.30463E+06
            1691     118.002E-03     5.94305E-03     117.852E-03     328.596E-03    -164.062E-03    -164.534E-03    -163.691E-03     328.072E-03    -164.381E-03     31.9883E-03     344.286E-03     131.801E+06    -29.2624E+06    -118.725E+06    -180.376E+06    -118.873E+06    -180.228E+06    -29.2624E+06    -2.72707E+06
            1692     118.087E-03     6.79229E-03     117.892E-03     329.095E-03    -164.375E-03    -164.720E-03    -163.940E-03     328.396E-03    -164.456E-03     37.0440E-03     347.837E-03     123.756E+06    -7.89100E+06    -104.209E+06    -147.188E+06    -104.471E+06    -146.926E+06    -7.89100E+06    -2.89852E+06
            1693     118.185E-03     7.63814E-03     117.938E-03     328.873E-03    -164.256E-03    -164.616E-03    -163.511E-03     328.017E-03    -164.506E-03     41.0075E-03     350.807E-03     115.595E+06     11.3168E+06    -90.8796E+06    -113.589E+06    -91.2231E+06    -113.246E+06     11.3168E+06    -2.09289E+06
            1694     118.291E-03     8.49020E-03     117.986E-03     329.058E-03    -164.207E-03    -164.852E-03    -163.538E-03     328.059E-03    -164.521E-03     44.3045E-03     354.339E-03     108.105E+06     28.3658E+06    -73.5521E+06    -84.9721E+06    -79.0445E+06    -79.4796E+06     28.3658E+06     356.017E+03
            1695     118.410E-03     9.33885E-03     118.042E-03     329.408E-03    -164.398E-03    -165.010E-03    -163.731E-03     328.267E-03    -164.535E-03     47.4106E-03     358.411E-03     103.202E+06     46.5921E+06    -32.9885E+06    -66.9925E+06    -66.4246E+06    -33.5565E+06     46.5921E+06     3.66966E+06
            1696     118.541E-03     10.1862E-03     118.103E-03     329.245E-03    -164.481E-03    -164.764E-03    -163.408E-03     327.951E-03    -164.543E-03     50.4779E-03     362.882E-03     107.625E+06     66.5647E+06     21.4907E+06    -54.7415E+06    -53.9819E+06     20.7312E+06     66.5647E+06     7.33991E+06
            1697     118.681E-03     11.0365E-03     118.167E-03     329.382E-03    -164.450E-03    -164.932E-03    -163.370E-03     327.882E-03    -164.512E-03     54.3206E-03     368.550E-03     130.384E+06     98.9656E+06     67.9133E+06    -43.9817E+06    -43.1851E+06     83.2645E+06     82.8178E+06     9.46395E+06
            1698     118.832E-03     11.8846E-03     118.236E-03     329.911E-03    -164.521E-03    -165.391E-03    -163.536E-03     328.057E-03    -164.521E-03     60.3639E-03     376.562E-03     147.452E+06     123.511E+06     97.1455E+06    -35.1648E+06    -34.7682E+06     123.114E+06     97.1455E+06     7.24887E+06
            1699     119.000E-03     12.7331E-03     118.317E-03     329.802E-03    -164.525E-03    -165.277E-03    -163.225E-03     327.803E-03    -164.578E-03     62.7605E-03     383.204E-03     147.405E+06     129.247E+06     109.865E+06    -26.8227E+06    -26.6620E+06     129.087E+06     109.865E+06     4.87469E+06
            1700     119.167E-03     13.5844E-03     118.390E-03     330.918E-03    -164.589E-03    -166.329E-03    -163.275E-03     327.917E-03    -164.642E-03     75.7083E-03     399.824E-03     150.165E+06     137.382E+06     125.452E+06    -18.2770E+06    -18.1697E+06     137.275E+06     125.452E+06     4.04529E+06
            1701     119.383E-03     14.4337E-03     118.507E-03     330.859E-03    -164.615E-03    -166.244E-03    -163.385E-03     328.115E-03    -164.730E-03     71.2577E-03     399.996E-03     159.419E+06     152.473E+06     147.319E+06    -9.45425E+06    -9.40965E+06     152.428E+06     147.319E+06     2.23359E+06
            1702     119.135E-03     849.308E-06     119.132E-03     327.290E-03    -163.009E-03    -164.281E-03    -163.366E-03     327.281E-03    -163.915E-03     3.75958E-03     327.912E-03     179.918E+06    -190.060E+06    -196.939E+06    -373.263E+06    -195.689E+06    -373.185E+06    -191.388E+06    -474.138E+03
            1703     119.150E-03     1.69893E-03     119.138E-03     327.255E-03    -163.492E-03    -163.764E-03    -163.506E-03     327.228E-03    -163.722E-03     7.04783E-03     329.083E-03     172.215E+06    -169.178E+06    -188.319E+06    -349.984E+06    -188.341E+06    -349.962E+06    -169.178E+06    -1.38633E+06
            1704     119.173E-03     2.54739E-03     119.146E-03     327.387E-03    -163.586E-03    -163.801E-03    -163.514E-03     327.315E-03    -163.801E-03     11.5926E-03     331.170E-03     163.282E+06    -141.168E+06    -176.978E+06    -319.139E+06    -177.068E+06    -319.050E+06    -141.168E+06    -3.10356E+06
            1705     119.209E-03     3.39673E-03     119.161E-03     327.740E-03    -163.798E-03    -163.942E-03    -163.673E-03     327.593E-03    -163.920E-03     16.8199E-03     334.135E-03     153.206E+06    -111.390E+06    -163.547E+06    -283.631E+06    -163.718E+06    -283.460E+06    -111.390E+06    -4.22439E+06
            1706     119.256E-03     4.24507E-03     119.180E-03     327.722E-03    -163.664E-03    -164.058E-03    -163.441E-03     327.477E-03    -164.036E-03     21.7729E-03     337.102E-03     147.713E+06    -82.5115E+06    -149.293E+06    -251.630E+06    -149.545E+06    -251.377E+06    -82.5115E+06    -4.91867E+06
            1707     119.316E-03     5.09576E-03     119.207E-03     327.710E-03    -163.614E-03    -164.096E-03    -163.238E-03     327.334E-03    -164.096E-03     27.0268E-03     340.171E-03     139.463E+06    -55.3632E+06    -133.590E+06    -216.111E+06    -134.072E+06    -215.630E+06    -55.3632E+06    -5.54185E+06
            1708     119.388E-03     5.94432E-03     119.240E-03     328.183E-03    -163.880E-03    -164.303E-03    -163.497E-03     327.646E-03    -164.149E-03     32.3649E-03     343.744E-03     129.686E+06    -31.1763E+06    -118.729E+06    -179.888E+06    -119.283E+06    -179.334E+06    -31.1763E+06    -5.35150E+06
            1709     119.475E-03     6.79167E-03     119.282E-03     328.363E-03    -163.997E-03    -164.366E-03    -163.451E-03     327.663E-03    -164.213E-03     37.0258E-03     347.030E-03     122.050E+06    -9.66918E+06    -105.199E+06    -146.827E+06    -105.953E+06    -146.073E+06    -9.66918E+06    -5.12339E+06
            1710     119.569E-03     7.64420E-03     119.324E-03     328.805E-03    -164.163E-03    -164.641E-03    -163.678E-03     327.950E-03    -164.272E-03     40.9846E-03     350.557E-03     115.413E+06     9.46964E+06    -91.5994E+06    -115.942E+06    -92.7557E+06    -114.785E+06     9.46964E+06    -4.94774E+06
            1711     119.678E-03     8.49042E-03     119.376E-03     329.543E-03    -164.341E-03    -165.202E-03    -164.189E-03     328.540E-03    -164.350E-03     44.4658E-03     354.673E-03     108.556E+06     25.9015E+06    -75.6494E+06    -88.3429E+06    -79.8984E+06     -84.094E+06     25.9015E+06    -3.16551E+06
            1712     119.796E-03     9.33756E-03     119.432E-03     329.390E-03    -164.410E-03    -164.980E-03    -163.812E-03     328.222E-03    -164.410E-03     47.9410E-03     358.389E-03     101.809E+06     43.5674E+06    -38.0928E+06    -67.7920E+06    -67.0508E+06    -38.8340E+06     43.5674E+06    -434.293E+03
            1713     119.924E-03     10.1882E-03     119.491E-03     329.101E-03    -164.364E-03    -164.737E-03    -163.318E-03     327.744E-03    -164.426E-03     51.6656E-03     362.588E-03     103.037E+06     62.6783E+06     12.4108E+06    -54.6977E+06    -54.4593E+06     12.1725E+06     62.6783E+06     3.23137E+06
            1714     120.063E-03     11.0371E-03     119.555E-03     329.260E-03    -164.330E-03    -164.929E-03    -163.307E-03     327.699E-03    -164.392E-03     55.4214E-03     368.282E-03     127.178E+06     97.4345E+06     61.2737E+06    -43.7519E+06    -43.1696E+06     78.2596E+06     79.8662E+06     8.21320E+06
            1715     120.216E-03     11.8868E-03     119.627E-03     329.556E-03    -164.400E-03    -165.156E-03    -163.280E-03     327.680E-03    -164.400E-03     60.7097E-03     376.193E-03     149.238E+06     126.771E+06     97.5951E+06    -34.6831E+06    -33.9403E+06     126.028E+06     97.5951E+06     10.6410E+06
            1716     120.380E-03     12.7371E-03     119.704E-03     329.994E-03    -164.471E-03    -165.523E-03    -163.522E-03     327.993E-03    -164.471E-03     62.8358E-03     383.325E-03     151.367E+06     133.192E+06     111.087E+06    -27.8934E+06    -27.4512E+06     132.750E+06     111.087E+06     7.71224E+06
            1717     120.549E-03     13.5843E-03     119.782E-03     331.367E-03    -164.570E-03    -166.797E-03    -163.830E-03     328.400E-03    -164.570E-03     75.4434E-03     400.310E-03     154.009E+06     140.575E+06     126.296E+06    -19.9536E+06    -19.8479E+06     140.469E+06     126.296E+06     3.68911E+06
            1718     120.761E-03     14.4336E-03     119.895E-03     330.852E-03    -164.552E-03    -166.300E-03    -163.452E-03     328.135E-03    -164.683E-03     71.0773E-03     400.121E-03     161.398E+06     155.034E+06     148.185E+06    -9.67772E+06    -9.65482E+06     155.011E+06     148.185E+06     1.34298E+06
            1719     120.520E-03     848.850E-06     120.517E-03     326.908E-03    -162.615E-03    -164.292E-03    -164.132E-03     326.899E-03    -162.767E-03     3.81896E-03     327.524E-03     172.807E+06    -192.404E+06    -199.275E+06    -368.538E+06    -198.042E+06    -368.443E+06    -193.733E+06    -2.65855E+06
            1720     120.535E-03     1.69821E-03     120.523E-03     326.661E-03    -163.172E-03    -163.489E-03    -163.144E-03     326.633E-03    -163.489E-03     7.17161E-03     328.503E-03     166.238E+06    -172.684E+06    -189.815E+06    -346.621E+06    -189.910E+06    -346.526E+06    -172.684E+06    -3.03645E+06
            1721     120.558E-03     2.54864E-03     120.531E-03     326.613E-03    -163.106E-03    -163.508E-03    -163.032E-03     326.540E-03    -163.508E-03     11.6343E-03     330.412E-03     157.214E+06    -142.947E+06    -178.155E+06    -314.489E+06    -178.305E+06    -314.339E+06    -142.947E+06    -4.27831E+06
            1722     120.595E-03     3.39801E-03     120.547E-03     326.800E-03    -163.211E-03    -163.588E-03    -163.078E-03     326.644E-03    -163.566E-03     17.2025E-03     333.149E-03     148.024E+06    -113.286E+06    -165.369E+06    -280.086E+06    -165.679E+06    -279.776E+06    -113.286E+06    -5.71361E+06
            1723     120.642E-03     4.24750E-03     120.568E-03     327.414E-03    -163.475E-03    -163.939E-03    -163.474E-03     327.161E-03    -163.687E-03     22.1841E-03     336.754E-03     142.834E+06    -84.6141E+06    -150.547E+06    -248.323E+06    -151.164E+06    -247.705E+06    -84.6141E+06    -7.35371E+06
            1724     120.700E-03     5.09524E-03     120.592E-03     327.733E-03    -163.673E-03    -164.060E-03    -163.511E-03     327.341E-03    -163.830E-03     27.5352E-03     340.206E-03     135.270E+06    -57.8192E+06    -135.536E+06    -213.681E+06    -136.554E+06    -212.663E+06    -57.8192E+06    -8.59068E+06
            1725     120.775E-03     5.94456E-03     120.629E-03     327.612E-03    -163.690E-03    -163.922E-03    -163.134E-03     327.056E-03    -163.922E-03     32.9509E-03     343.160E-03     127.737E+06    -33.4512E+06    -120.237E+06    -179.969E+06    -121.827E+06    -178.379E+06    -33.4512E+06    -9.04438E+06
            1726     120.858E-03     6.79616E-03     120.667E-03     328.101E-03    -163.790E-03    -164.311E-03    -163.415E-03     327.400E-03    -163.985E-03     37.0758E-03     346.664E-03     120.401E+06    -11.8751E+06    -105.374E+06    -147.319E+06    -107.337E+06    -145.355E+06    -11.8751E+06    -8.34942E+06
            1727     120.956E-03     7.64198E-03     120.714E-03     328.848E-03    -164.052E-03    -164.795E-03    -163.908E-03     327.987E-03    -164.079E-03     41.1126E-03     350.418E-03     113.844E+06     6.87098E+06    -91.7999E+06    -117.541E+06    -94.4205E+06    -114.921E+06     6.87098E+06    -7.29512E+06
            1728     121.064E-03     8.49153E-03     120.766E-03     328.882E-03    -164.165E-03    -164.718E-03    -163.678E-03     327.843E-03    -164.165E-03     45.1962E-03     353.760E-03     108.204E+06     23.3578E+06    -75.0872E+06    -92.3912E+06    -81.4799E+06    -85.9985E+06     23.3578E+06    -6.84301E+06
            1729     121.180E-03     9.34201E-03     120.820E-03     328.894E-03    -164.196E-03    -164.697E-03    -163.484E-03     327.680E-03    -164.196E-03     48.8498E-03     357.611E-03     100.474E+06     39.2275E+06    -41.6937E+06    -71.5645E+06    -69.0884E+06    -44.1698E+06     39.2275E+06    -4.79968E+06
            1730     121.308E-03     10.1900E-03     120.879E-03     329.343E-03    -164.227E-03    -165.116E-03    -163.719E-03     327.945E-03    -164.227E-03     52.4671E-03     362.645E-03     100.266E+06     56.8921E+06     3.82867E+06    -57.6169E+06    -57.4078E+06     3.61957E+06     56.8921E+06    -141.689E+03
            1731     121.448E-03     11.0388E-03     120.945E-03     329.387E-03    -164.234E-03    -165.153E-03    -163.577E-03     327.811E-03    -164.234E-03     55.7260E-03     368.329E-03     122.167E+06     87.5327E+06     53.0405E+06    -47.6687E+06    -47.2696E+06     66.7933E+06     73.3808E+06     6.45685E+06
            1732     121.596E-03     11.8881E-03     121.014E-03     329.691E-03    -164.255E-03    -165.436E-03    -163.571E-03     327.826E-03    -164.255E-03     60.5551E-03     376.248E-03     148.797E+06     124.046E+06     90.3716E+06    -38.6025E+06    -37.8326E+06     123.276E+06     90.3716E+06     11.0065E+06
            1733     121.763E-03     12.7362E-03     121.095E-03     330.195E-03    -164.352E-03    -165.843E-03    -163.856E-03     328.208E-03    -164.352E-03     62.6417E-03     383.360E-03     155.136E+06     141.629E+06     107.789E+06    -27.4963E+06    -26.9791E+06     141.111E+06     107.789E+06     8.72777E+06
            1734     121.931E-03     13.5858E-03     121.172E-03     331.352E-03    -164.493E-03    -166.859E-03    -163.885E-03     328.378E-03    -164.493E-03     75.4511E-03     400.153E-03     155.169E+06     146.347E+06     127.301E+06    -17.1854E+06    -17.0756E+06     146.237E+06     127.301E+06     3.71548E+06
            1735     122.141E-03     14.4348E-03     121.285E-03     330.957E-03    -164.559E-03    -166.398E-03    -163.582E-03     328.207E-03    -164.625E-03     71.5527E-03     400.219E-03     162.232E+06     157.115E+06     149.575E+06    -8.74125E+06    -8.72744E+06     157.101E+06     149.575E+06     1.07817E+06
            1736     121.906E-03     849.907E-06     121.903E-03     325.452E-03    -161.859E-03    -163.593E-03    -163.127E-03     325.440E-03    -162.313E-03     4.01168E-03     326.058E-03     164.787E+06    -191.550E+06    -200.408E+06    -360.568E+06    -198.552E+06    -360.511E+06    -193.463E+06    -1.99268E+06
            1737     121.919E-03     1.69970E-03     121.907E-03     325.866E-03    -162.741E-03    -163.125E-03    -162.954E-03     325.823E-03    -162.869E-03     8.81183E-03     327.682E-03     159.159E+06    -173.302E+06    -191.109E+06    -340.488E+06    -191.307E+06    -340.290E+06    -173.302E+06    -5.07150E+06
            1738     121.944E-03     2.54849E-03     121.917E-03     326.204E-03    -162.828E-03    -163.377E-03    -163.057E-03     326.119E-03    -163.061E-03     12.7780E-03     330.003E-03     150.862E+06    -146.341E+06    -179.778E+06    -310.829E+06    -180.125E+06    -310.481E+06    -146.341E+06    -6.35987E+06
            1739     121.978E-03     3.39882E-03     121.931E-03     326.081E-03    -162.741E-03    -163.340E-03    -162.721E-03     325.921E-03    -163.201E-03     17.4010E-03     332.381E-03     141.719E+06    -115.107E+06    -166.050E+06    -274.974E+06    -166.600E+06    -274.424E+06    -115.107E+06    -7.38037E+06
            1740     122.028E-03     4.24880E-03     121.954E-03     326.389E-03    -162.863E-03    -163.526E-03    -162.807E-03     326.104E-03    -163.297E-03     23.4214E-03     335.624E-03     137.006E+06    -85.6339E+06    -151.558E+06    -242.924E+06    -152.528E+06    -241.954E+06    -85.6339E+06     -9.1601E+06
            1741     122.088E-03     5.09793E-03     121.981E-03     327.248E-03    -163.233E-03    -164.015E-03    -163.380E-03     326.812E-03    -163.433E-03     29.1120E-03     339.629E-03     130.576E+06    -59.1864E+06    -136.723E+06    -209.660E+06    -138.427E+06    -207.956E+06    -59.1864E+06    -10.6227E+06
            1742     122.158E-03     5.94750E-03     122.013E-03     327.711E-03    -163.480E-03    -164.231E-03    -163.528E-03     327.124E-03    -163.596E-03     33.8696E-03     343.178E-03     124.439E+06    -35.5873E+06    -121.664E+06    -178.114E+06    -124.351E+06    -175.427E+06    -35.5873E+06    -11.7013E+06
            1743     122.245E-03     6.79470E-03     122.056E-03     327.964E-03    -163.631E-03    -164.333E-03    -163.477E-03     327.203E-03    -163.726E-03     38.5758E-03     346.400E-03     118.439E+06    -15.5331E+06    -106.690E+06    -149.199E+06    -110.595E+06    -145.293E+06    -15.5331E+06    -11.8606E+06
            1744     122.342E-03     7.64529E-03     122.103E-03     328.174E-03    -163.779E-03    -164.395E-03    -163.412E-03     327.234E-03    -163.822E-03     42.9324E-03     349.631E-03     112.313E+06     3.37615E+06    -91.6275E+06    -120.358E+06    -96.5900E+06    -115.395E+06     3.37615E+06    -10.4944E+06
            1745     122.447E-03     8.49444E-03     122.152E-03     328.465E-03    -163.898E-03    -164.567E-03    -163.491E-03     327.388E-03    -163.898E-03     46.0137E-03     353.215E-03     107.019E+06     20.5010E+06    -73.7352E+06    -95.7722E+06    -84.0218E+06    -85.4856E+06     20.5010E+06    -9.67913E+06
            1746     122.565E-03     9.34295E-03     122.208E-03     329.038E-03    -163.963E-03    -165.075E-03    -163.866E-03     327.829E-03    -163.963E-03     48.8040E-03     357.543E-03     100.396E+06     35.6041E+06    -43.7892E+06    -76.3918E+06    -72.4865E+06    -47.6944E+06     35.6041E+06    -8.57681E+06
            1747     122.693E-03     10.1921E-03     122.269E-03     329.516E-03    -164.042E-03    -165.474E-03    -164.101E-03     328.142E-03    -164.042E-03     52.0451E-03     362.652E-03     98.2661E+06     50.7575E+06    -5.64809E+06    -61.8699E+06    -61.1129E+06    -6.40510E+06     50.7575E+06    -4.00841E+06
            1748     122.831E-03     11.0408E-03     122.334E-03     329.757E-03    -164.101E-03    -165.656E-03    -164.121E-03     328.222E-03    -164.101E-03     55.0462E-03     368.507E-03     113.524E+06     75.9298E+06     44.6754E+06    -48.6783E+06    -48.3901E+06     52.8713E+06     67.4457E+06     3.22021E+06
            1749     122.980E-03     11.8893E-03     122.404E-03     330.041E-03    -164.164E-03    -165.877E-03    -164.024E-03     328.187E-03    -164.164E-03     60.3748E-03     376.532E-03     143.263E+06     119.902E+06     88.0074E+06    -36.2208E+06    -35.7596E+06     119.440E+06     88.0074E+06     8.04904E+06
            1750     123.147E-03     12.7380E-03     122.486E-03     330.047E-03    -164.265E-03    -165.782E-03    -163.789E-03     328.054E-03    -164.265E-03     62.7081E-03     383.336E-03     157.581E+06     147.926E+06     105.275E+06    -26.5347E+06    -26.2223E+06     147.614E+06     105.275E+06     7.15254E+06
            1751     123.311E-03     13.5867E-03     122.560E-03     331.171E-03    -164.413E-03    -166.758E-03    -163.827E-03     328.240E-03    -164.413E-03     74.9264E-03     399.990E-03     158.271E+06     151.042E+06     124.805E+06    -18.2906E+06    -18.1856E+06     150.937E+06     124.805E+06     4.01357E+06
            1752     123.523E-03     14.4362E-03     122.676E-03     330.721E-03    -164.341E-03    -166.380E-03    -163.461E-03     328.028E-03    -164.567E-03     70.7561E-03     399.896E-03     164.716E+06     159.973E+06     150.510E+06    -9.21077E+06    -9.18745E+06     159.950E+06     150.510E+06     1.57642E+06
            1753     123.287E-03     851.300E-06     123.284E-03     324.003E-03    -161.626E-03    -162.378E-03    -161.966E-03     323.991E-03    -162.024E-03     4.28127E-03     324.601E-03     158.884E+06    -191.160E+06    -199.986E+06    -354.259E+06    -198.113E+06    -354.218E+06    -193.074E+06    -2.16083E+06
            1754     123.302E-03     1.70169E-03     123.290E-03     324.469E-03    -161.999E-03    -162.470E-03    -162.271E-03     324.428E-03    -162.157E-03     8.42350E-03     326.263E-03     151.905E+06    -171.658E+06    -190.555E+06    -331.882E+06    -190.724E+06    -331.713E+06    -171.658E+06    -4.27814E+06
            1755     123.328E-03     2.55179E-03     123.301E-03     324.844E-03    -162.166E-03    -162.678E-03    -162.376E-03     324.739E-03    -162.363E-03     13.9378E-03     328.597E-03     144.629E+06    -145.156E+06    -180.022E+06    -303.838E+06    -180.581E+06    -303.279E+06    -145.156E+06    -7.91844E+06
            1756     123.363E-03     3.39995E-03     123.316E-03     325.319E-03    -162.339E-03    -162.980E-03    -162.560E-03     325.118E-03    -162.558E-03     19.5503E-03     331.609E-03     136.504E+06    -115.918E+06    -166.230E+06    -270.119E+06    -167.169E+06    -269.180E+06    -115.918E+06    -9.68325E+06
            1757     123.409E-03     4.25039E-03     123.336E-03     325.634E-03    -162.428E-03    -163.206E-03    -162.562E-03     325.305E-03    -162.743E-03     25.1384E-03     334.779E-03     131.158E+06    -85.9647E+06    -151.456E+06    -236.745E+06    -152.924E+06    -235.277E+06    -85.9647E+06    -10.7490E+06
            1758     123.472E-03     5.10164E-03     123.367E-03     326.387E-03    -162.783E-03    -163.604E-03    -162.998E-03     325.917E-03    -162.919E-03     30.2488E-03     338.552E-03     126.133E+06    -59.4798E+06    -136.193E+06    -204.842E+06    -138.696E+06    -202.339E+06    -59.4798E+06    -12.5354E+06
            1759     123.545E-03     5.94890E-03     123.402E-03     327.415E-03    -163.130E-03    -164.285E-03    -163.645E-03     326.776E-03    -163.130E-03     35.3188E-03     342.715E-03     120.961E+06    -36.4298E+06    -120.745E+06    -174.882E+06    -124.668E+06    -170.959E+06    -36.4298E+06    -13.7221E+06
            1760     123.629E-03     6.79899E-03     123.442E-03     327.710E-03    -163.289E-03    -164.421E-03    -163.563E-03     326.895E-03    -163.332E-03     39.9694E-03     346.072E-03     116.690E+06    -16.4183E+06    -105.205E+06    -148.490E+06    -111.165E+06    -142.530E+06    -16.4183E+06    -14.5486E+06
            1761     123.725E-03     7.64810E-03     123.488E-03     327.944E-03    -163.437E-03    -164.508E-03    -163.513E-03     326.993E-03    -163.480E-03     43.2216E-03     349.343E-03     112.189E+06     1.04304E+06    -89.8469E+06    -124.243E+06    -98.0137E+06    -116.076E+06     1.04304E+06    -14.3609E+06
            1762     123.833E-03     8.49694E-03     123.541E-03     328.851E-03    -163.623E-03    -165.228E-03    -164.145E-03     327.769E-03    -163.623E-03     46.1877E-03     353.528E-03     106.254E+06     18.4133E+06    -70.6265E+06    -99.1529E+06    -84.8424E+06    -84.9371E+06     18.4133E+06    -12.8440E+06
            1763     123.949E-03     9.34516E-03     123.596E-03     329.721E-03    -163.789E-03    -165.932E-03    -164.725E-03     328.513E-03    -163.789E-03     48.8564E-03     358.186E-03     100.339E+06     34.0907E+06    -44.4639E+06    -78.5485E+06    -73.3605E+06    -49.6518E+06     34.0907E+06    -11.2211E+06
            1764     124.077E-03     10.1930E-03     123.658E-03     330.043E-03    -163.948E-03    -166.095E-03    -164.771E-03     328.720E-03    -163.948E-03     51.1710E-03     363.158E-03     97.9525E+06     48.3927E+06    -10.8874E+06    -63.8734E+06    -61.7757E+06    -12.9850E+06     48.3927E+06    -9.08783E+06
            1765     124.215E-03     11.0411E-03     123.723E-03     330.019E-03    -164.054E-03    -165.964E-03    -164.484E-03     328.538E-03    -164.054E-03     54.0845E-03     368.724E-03     105.991E+06     65.9523E+06     37.8761E+06    -49.3154E+06    -48.6348E+06     39.9643E+06     63.1835E+06    -3.80174E+06
            1766     124.365E-03     11.8888E-03     123.795E-03     329.881E-03    -164.128E-03    -165.753E-03    -163.956E-03     328.085E-03    -164.128E-03     59.4617E-03     376.220E-03     137.153E+06     111.245E+06     82.3307E+06    -37.2975E+06    -37.0948E+06     109.754E+06     83.6193E+06     3.83427E+06
            1767     124.527E-03     12.7383E-03     123.873E-03     329.772E-03    -164.211E-03    -165.561E-03    -163.610E-03     327.821E-03    -164.211E-03     62.0411E-03     382.873E-03     159.760E+06     150.814E+06     102.249E+06    -27.5624E+06    -27.3018E+06     150.553E+06     102.249E+06     6.72988E+06
            1768     124.695E-03     13.5869E-03     123.953E-03     330.787E-03    -164.346E-03    -166.441E-03    -163.510E-03     327.856E-03    -164.346E-03     74.8681E-03     399.437E-03     160.674E+06     155.995E+06     122.523E+06    -18.2453E+06    -18.1294E+06     155.879E+06     122.523E+06     4.12728E+06
            1769     124.900E-03     14.4353E-03     124.063E-03     329.766E-03    -163.807E-03    -165.959E-03    -162.559E-03     327.039E-03    -164.480E-03     71.2701E-03     398.784E-03     165.891E+06     162.870E+06     149.824E+06    -9.04094E+06    -9.01937E+06     162.849E+06     149.824E+06     1.83149E+06
            1770     124.668E-03     850.268E-06     124.665E-03     322.959E-03    -160.725E-03    -162.234E-03    -162.083E-03     322.941E-03    -160.858E-03     5.15414E-03     323.567E-03     154.353E+06    -189.199E+06    -198.606E+06    -348.009E+06    -196.745E+06    -347.914E+06    -191.154E+06    -2.19981E+06
            1771     124.684E-03     1.70071E-03     124.672E-03     322.732E-03    -161.161E-03    -161.571E-03    -161.170E-03     322.683E-03    -161.513E-03     9.24214E-03     324.557E-03     145.491E+06    -169.843E+06    -188.328E+06    -323.478E+06    -188.577E+06    -323.229E+06    -169.843E+06    -5.22327E+06
            1772     124.707E-03     2.55269E-03     124.681E-03     322.779E-03    -161.239E-03    -161.541E-03    -161.124E-03     322.664E-03    -161.541E-03     14.4961E-03     326.490E-03     139.122E+06    -141.377E+06    -176.962E+06    -294.521E+06    -177.488E+06    -293.995E+06    -141.377E+06    -7.52637E+06
            1773     124.745E-03     3.40593E-03     124.699E-03     323.838E-03    -161.612E-03    -162.226E-03    -161.923E-03     323.618E-03    -161.695E-03     20.4891E-03     330.030E-03     132.778E+06    -112.668E+06    -164.333E+06    -263.265E+06    -165.450E+06    -262.148E+06    -112.668E+06    -10.0136E+06
            1774     124.793E-03     4.25435E-03     124.721E-03     325.165E-03    -161.995E-03    -163.170E-03    -162.808E-03     324.803E-03    -161.995E-03     26.3870E-03     334.215E-03     126.369E+06    -84.8052E+06    -149.431E+06    -230.193E+06    -151.547E+06    -228.076E+06    -84.8052E+06    -12.6389E+06
            1775     124.855E-03     5.10227E-03     124.750E-03     325.740E-03    -162.311E-03    -163.429E-03    -162.902E-03     325.214E-03    -162.311E-03     31.9679E-03     337.846E-03     122.604E+06    -58.3205E+06    -133.592E+06    -199.634E+06    -137.165E+06    -196.061E+06    -58.3205E+06    -14.5850E+06
            1776     124.929E-03     5.95426E-03     124.787E-03     326.669E-03    -162.585E-03    -164.084E-03    -163.398E-03     325.983E-03    -162.585E-03     36.6105E-03     341.815E-03     118.732E+06    -35.1590E+06    -117.470E+06    -171.145E+06    -122.985E+06    -165.631E+06    -35.1590E+06    -15.9874E+06
            1777     125.014E-03     6.80191E-03     124.829E-03     328.104E-03    -162.888E-03    -165.217E-03    -164.407E-03     327.295E-03    -162.888E-03     39.9290E-03     346.282E-03     115.535E+06    -15.1583E+06    -101.656E+06    -146.318E+06    -109.354E+06    -138.620E+06    -15.1583E+06    -16.6901E+06
            1778     125.110E-03     7.64979E-03     124.876E-03     328.782E-03    -163.196E-03    -165.586E-03    -164.663E-03     327.859E-03    -163.196E-03     42.6630E-03     350.089E-03     112.106E+06     1.79257E+06    -85.7345E+06    -124.534E+06    -97.0050E+06    -113.264E+06     1.79257E+06    -17.2414E+06
            1779     125.217E-03     8.49840E-03     124.928E-03     329.263E-03    -163.454E-03    -165.808E-03    -164.741E-03     328.196E-03    -163.454E-03     45.8845E-03     353.772E-03     106.589E+06     17.5049E+06    -67.0581E+06    -102.154E+06    -84.8098E+06    -84.4019E+06     17.5049E+06    -16.8666E+06
            1780     125.336E-03     9.34597E-03     124.988E-03     330.092E-03    -163.686E-03    -166.406E-03    -165.210E-03     328.897E-03    -163.686E-03     48.6516E-03     358.378E-03     100.765E+06     33.1335E+06    -43.3805E+06    -80.8647E+06    -72.1181E+06    -52.1270E+06     33.1335E+06    -14.9001E+06
            1781     125.463E-03     10.1928E-03     125.048E-03     330.438E-03    -163.897E-03    -166.541E-03    -165.205E-03     329.102E-03    -163.897E-03     51.4298E-03     363.528E-03     98.4229E+06     48.6651E+06    -11.3115E+06    -64.1340E+06    -60.2603E+06    -15.1852E+06     48.6651E+06    -12.9115E+06
            1782     125.600E-03     11.0400E-03     125.114E-03     329.987E-03    -164.026E-03    -165.961E-03    -164.441E-03     328.467E-03    -164.026E-03     54.7925E-03     368.747E-03     101.624E+06     60.2569E+06     28.8150E+06    -51.7936E+06    -50.4974E+06     27.5188E+06     60.2569E+06    -8.17663E+06
            1783     125.746E-03     11.8897E-03     125.183E-03     329.574E-03    -164.074E-03    -165.500E-03    -163.628E-03     327.703E-03    -164.074E-03     60.6054E-03     375.726E-03     131.702E+06     103.808E+06     70.9966E+06    -40.5689E+06    -40.4005E+06     96.6645E+06     77.9720E+06    -433.569E+03
            1784     125.910E-03     12.7378E-03     125.265E-03     329.285E-03    -164.107E-03    -165.178E-03    -163.097E-03     327.204E-03    -164.107E-03     63.9803E-03     382.100E-03     159.975E+06     151.001E+06     96.8047E+06    -28.9943E+06    -28.8654E+06     150.872E+06     96.8047E+06     3.69413E+06
            1785     126.074E-03     13.5877E-03     125.340E-03     329.832E-03    -164.193E-03    -165.639E-03    -162.564E-03     326.757E-03    -164.193E-03     76.6481E-03     398.432E-03     160.918E+06     158.644E+06     117.368E+06    -18.2565E+06    -18.1673E+06     158.554E+06     117.368E+06     3.45286E+06
            1786     126.281E-03     14.4398E-03     125.453E-03     328.654E-03    -163.305E-03    -165.350E-03    -161.546E-03     325.839E-03    -164.292E-03     72.2194E-03     397.686E-03     166.468E+06     164.987E+06     147.981E+06    -9.11233E+06    -9.08351E+06     164.959E+06     147.981E+06     1.95343E+06
            1787     126.047E-03     851.982E-06     126.044E-03     320.477E-03    -159.179E-03    -161.298E-03    -160.287E-03     320.457E-03    -160.170E-03     5.34089E-03     321.101E-03     150.836E+06    -186.270E+06    -194.618E+06    -341.063E+06    -192.787E+06    -340.938E+06    -188.225E+06    -2.77487E+06
            1788     126.062E-03     1.70496E-03     126.050E-03     320.654E-03    -160.133E-03    -160.521E-03    -160.264E-03     320.591E-03    -160.327E-03     10.6559E-03     322.460E-03     138.119E+06    -168.558E+06    -186.226E+06    -314.373E+06    -186.506E+06    -314.093E+06    -168.558E+06    -5.58310E+06
            1789     126.086E-03     2.55609E-03     126.060E-03     321.552E-03    -160.443E-03    -161.109E-03    -160.870E-03     321.417E-03    -160.548E-03     15.8771E-03     325.227E-03     132.817E+06    -139.818E+06    -175.269E+06    -286.442E+06    -175.906E+06    -285.804E+06    -139.818E+06    -7.98663E+06
            1790     126.124E-03     3.40562E-03     126.078E-03     322.587E-03    -160.833E-03    -161.754E-03    -161.464E-03     322.341E-03    -160.877E-03     21.5654E-03     328.688E-03     128.170E+06    -108.569E+06    -160.843E+06    -254.320E+06    -162.227E+06    -252.936E+06    -108.569E+06    -10.7175E+06
            1791     126.176E-03     4.25770E-03     126.104E-03     323.888E-03    -161.241E-03    -162.647E-03    -162.260E-03     323.501E-03    -161.241E-03     27.2602E-03     332.840E-03     122.666E+06    -80.7582E+06    -145.556E+06    -222.058E+06    -148.225E+06    -219.389E+06    -80.7582E+06    -13.7309E+06
            1792     126.238E-03     5.10846E-03     126.134E-03     325.533E-03    -161.662E-03    -163.872E-03    -163.332E-03     324.994E-03    -161.662E-03     32.3836E-03     337.538E-03     119.439E+06    -55.4995E+06    -129.457E+06    -193.158E+06    -134.122E+06    -188.493E+06    -55.4995E+06    -16.2480E+06
            1793     126.312E-03     5.95576E-03     126.171E-03     326.891E-03    -162.108E-03    -164.783E-03    -164.093E-03     326.201E-03    -162.108E-03     36.7637E-03     341.872E-03     116.966E+06    -33.0442E+06    -113.944E+06    -167.046E+06    -120.713E+06    -160.277E+06    -33.0442E+06    -17.5561E+06
            1794     126.401E-03     6.80477E-03     126.218E-03     328.237E-03    -162.544E-03    -165.692E-03    -164.865E-03     327.409E-03    -162.544E-03     40.3637E-03     346.149E-03     114.447E+06    -13.2482E+06    -98.2023E+06    -143.345E+06    -107.924E+06    -133.624E+06    -13.2482E+06    -18.1768E+06
            1795     126.496E-03     7.65152E-03     126.265E-03     329.659E-03    -162.973E-03    -166.687E-03    -165.745E-03     328.717E-03    -162.973E-03     43.1811E-03     350.632E-03     111.445E+06     3.67075E+06    -80.9064E+06    -122.591E+06    -95.2556E+06    -108.242E+06     3.67075E+06    -19.5384E+06
            1796     126.603E-03     8.49808E-03     126.317E-03     330.004E-03    -163.347E-03    -166.656E-03    -165.584E-03     328.931E-03    -163.347E-03     46.0759E-03     354.243E-03     107.186E+06     18.0331E+06    -62.3164E+06    -103.631E+06    -83.2213E+06    -82.7258E+06     18.0331E+06    -20.2491E+06
            1797     126.722E-03     9.34597E-03     126.377E-03     329.594E-03    -163.609E-03    -165.986E-03    -164.748E-03     328.356E-03    -163.609E-03     49.4388E-03     357.515E-03     102.386E+06     32.8545E+06    -41.0862E+06    -83.9530E+06    -71.2403E+06    -53.7989E+06     32.8545E+06    -19.0003E+06
            1798     126.849E-03     10.1942E-03     126.439E-03     329.567E-03    -163.771E-03    -165.796E-03    -164.371E-03     328.142E-03    -163.771E-03     53.0108E-03     362.167E-03     99.4882E+06     48.5060E+06    -11.8098E+06    -65.7612E+06    -59.5281E+06    -18.0430E+06     48.5060E+06    -15.9177E+06
            1799     126.984E-03     11.0428E-03     126.503E-03     329.596E-03    -163.867E-03    -165.730E-03    -164.102E-03     327.969E-03    -163.867E-03     56.6501E-03     367.927E-03     97.7663E+06     59.8964E+06     19.1089E+06    -51.0521E+06    -48.8750E+06     16.9318E+06     59.8964E+06    -10.9311E+06
            1800     127.129E-03     11.8908E-03     126.572E-03     329.091E-03    -163.887E-03    -165.204E-03    -163.208E-03     327.095E-03    -163.887E-03     62.5365E-03     374.915E-03     124.626E+06     101.245E+06     60.7263E+06    -38.3934E+06    -37.8932E+06     85.1532E+06     76.3181E+06    -4.46968E+06
            1801     127.291E-03     12.7420E-03     126.652E-03     328.303E-03    -163.824E-03    -164.478E-03    -162.208E-03     326.081E-03    -163.873E-03     66.0156E-03     380.661E-03     156.138E+06     147.632E+06     95.2449E+06    -27.9160E+06    -27.9007E+06     147.617E+06     95.2449E+06     350.787E+03
            1802     127.455E-03     13.5923E-03     126.728E-03     328.974E-03    -163.859E-03    -165.115E-03    -161.851E-03     325.759E-03    -163.908E-03     78.3929E-03     397.111E-03     160.012E+06     157.772E+06     114.075E+06    -19.1719E+06    -19.1442E+06     157.744E+06     114.075E+06     1.88472E+06
            1803     127.657E-03     14.4422E-03     126.837E-03     328.317E-03    -163.257E-03    -165.060E-03    -161.416E-03     325.417E-03    -164.001E-03     73.2065E-03     397.192E-03     167.588E+06     167.044E+06     146.670E+06    -9.40249E+06    -9.37868E+06     167.020E+06     146.670E+06     1.59723E+06
            1804     127.422E-03     853.678E-06     127.419E-03     317.562E-03    -158.175E-03    -159.388E-03    -158.509E-03     317.542E-03    -159.033E-03     6.06264E-03     318.162E-03     144.758E+06    -183.885E+06    -191.415E+06    -332.235E+06    -189.598E+06    -332.095E+06    -185.842E+06    -3.10585E+06
            1805     127.436E-03     1.70604E-03     127.424E-03     318.528E-03    -158.995E-03    -159.534E-03    -159.465E-03     318.460E-03    -158.995E-03     10.8878E-03     320.290E-03     131.623E+06    -166.551E+06    -183.288E+06    -305.433E+06    -183.567E+06    -305.154E+06    -166.551E+06    -5.48305E+06
            1806     127.464E-03     2.55864E-03     127.438E-03     320.054E-03    -159.454E-03    -160.600E-03    -160.437E-03     319.891E-03    -159.454E-03     17.3777E-03     323.677E-03     125.690E+06    -137.164E+06    -171.802E+06    -276.222E+06    -172.675E+06    -275.349E+06    -137.164E+06    -8.92417E+06
            1807     127.503E-03     3.41059E-03     127.458E-03     321.724E-03    -159.996E-03    -161.727E-03    -161.440E-03     321.436E-03    -159.996E-03     23.4009E-03     327.722E-03     122.338E+06    -106.118E+06    -157.433E+06    -245.476E+06    -159.303E+06    -243.606E+06    -106.118E+06    -12.4548E+06
            1808     127.555E-03     4.26048E-03     127.483E-03     323.386E-03    -160.553E-03    -162.832E-03    -162.409E-03     322.962E-03    -160.553E-03     28.5678E-03     332.168E-03     118.778E+06    -77.3315E+06    -141.961E+06    -214.179E+06    -145.212E+06    -210.928E+06    -77.3315E+06    -14.6433E+06
            1809     127.621E-03     5.10959E-03     127.518E-03     325.458E-03    -161.134E-03    -164.324E-03    -163.751E-03     324.885E-03    -161.134E-03     33.3707E-03     337.209E-03     115.823E+06    -52.1860E+06    -126.630E+06    -185.481E+06    -131.882E+06    -180.229E+06    -52.1860E+06    -16.5154E+06
            1810     127.698E-03     5.95798E-03     127.559E-03     327.209E-03    -161.732E-03    -165.477E-03    -164.755E-03     326.487E-03    -161.732E-03     37.6232E-03     341.918E-03     115.064E+06    -29.9605E+06    -110.112E+06    -161.789E+06    -118.309E+06    -153.592E+06    -29.9605E+06    -18.5953E+06
            1811     127.784E-03     6.80560E-03     127.602E-03     328.198E-03    -162.267E-03    -165.931E-03    -165.059E-03     327.326E-03    -162.267E-03     41.4163E-03     345.774E-03     113.578E+06    -10.6350E+06    -93.0995E+06    -140.140E+06    -105.093E+06    -128.146E+06    -10.6350E+06    -20.2018E+06
            1812     127.885E-03     7.65391E-03     127.656E-03     329.248E-03    -162.719E-03    -166.529E-03    -165.502E-03     328.221E-03    -162.719E-03     45.0373E-03     349.679E-03     110.672E+06     5.76960E+06    -75.9098E+06    -120.167E+06    -93.1881E+06    -102.888E+06     5.76960E+06    -21.2865E+06
            1813     127.991E-03     8.49948E-03     127.708E-03     329.798E-03    -163.100E-03    -166.698E-03    -165.516E-03     328.616E-03    -163.100E-03     48.3328E-03     353.484E-03     107.642E+06     20.3024E+06    -57.2870E+06    -102.564E+06    -81.3864E+06    -78.4648E+06     20.3024E+06    -22.3418E+06
            1814     128.106E-03     9.34705E-03     127.764E-03     329.115E-03    -163.362E-03    -165.753E-03    -164.394E-03     327.756E-03    -163.362E-03     51.7460E-03     356.515E-03     104.349E+06     34.0565E+06    -38.3490E+06    -85.5212E+06    -70.2606E+06    -53.6096E+06     34.0565E+06    -21.7209E+06
            1815     128.232E-03     10.1971E-03     127.826E-03     328.406E-03    -163.479E-03    -164.926E-03    -163.378E-03     326.858E-03    -163.479E-03     55.1336E-03     360.250E-03     100.691E+06     47.5569E+06    -12.7926E+06    -68.2811E+06    -59.2608E+06    -21.8130E+06     47.5569E+06    -19.5851E+06
            1816     128.368E-03     11.0463E-03     127.892E-03     328.363E-03    -163.520E-03    -164.844E-03    -163.086E-03     326.605E-03    -163.520E-03     58.7383E-03     365.784E-03     97.0141E+06     59.4044E+06     13.6252E+06    -51.9251E+06    -47.4145E+06     9.11463E+06     59.4044E+06    -15.9443E+06
            1817     128.512E-03     11.8961E-03     127.960E-03     328.309E-03    -163.503E-03    -164.807E-03    -162.660E-03     326.162E-03    -163.503E-03     64.7771E-03     373.320E-03     118.595E+06     95.3407E+06     54.8990E+06    -37.9044E+06    -36.3644E+06     73.5790E+06     75.1207E+06    -8.73337E+06
            1818     128.670E-03     12.7456E-03     128.037E-03     327.700E-03    -163.419E-03    -164.281E-03    -161.872E-03     325.340E-03    -163.468E-03     67.9632E-03     379.359E-03     149.296E+06     140.340E+06     93.4283E+06    -26.6543E+06    -26.5605E+06     140.247E+06     93.4283E+06    -398.246E+03
            1819     128.834E-03     13.5975E-03     128.114E-03     328.737E-03    -163.448E-03    -165.289E-03    -161.891E-03     325.389E-03    -163.497E-03     80.0578E-03     396.084E-03     159.056E+06     158.282E+06     111.074E+06    -18.8406E+06    -18.8072E+06     158.249E+06     111.074E+06     1.96602E+06
            1820     129.036E-03     14.4497E-03     128.225E-03     329.180E-03    -163.446E-03    -165.734E-03    -162.571E-03     326.221E-03    -163.650E-03     73.8640E-03     397.617E-03     169.220E+06     168.413E+06     144.400E+06    -10.7472E+06    -10.7352E+06     168.401E+06     144.400E+06     390.869E+03
            1821     128.791E-03     854.415E-06     128.789E-03     314.648E-03    -156.961E-03    -157.686E-03    -157.653E-03     314.614E-03    -156.961E-03     7.23018E-03     315.207E-03     136.069E+06    -180.659E+06    -188.667E+06    -320.540E+06    -186.964E+06    -320.286E+06    -182.616E+06    -4.34803E+06
            1822     128.809E-03     1.70865E-03     128.798E-03     316.427E-03    -157.664E-03    -158.762E-03    -158.662E-03     316.327E-03    -157.664E-03     13.3676E-03     318.118E-03     126.838E+06    -162.214E+06    -178.409E+06    -296.171E+06    -178.895E+06    -295.685E+06    -162.214E+06    -7.14770E+06
            1823     128.838E-03     2.56145E-03     128.812E-03     318.557E-03    -158.349E-03    -160.208E-03    -160.009E-03     318.358E-03    -158.349E-03     19.2964E-03     322.041E-03     118.928E+06    -134.453E+06    -167.042E+06    -265.910E+06    -168.112E+06    -264.840E+06    -134.453E+06    -9.88395E+06
            1824     128.881E-03     3.41299E-03     128.836E-03     320.794E-03    -159.098E-03    -161.695E-03    -161.371E-03     320.469E-03    -159.098E-03     24.8240E-03     326.600E-03     115.614E+06    -103.903E+06    -153.901E+06    -235.818E+06    -155.983E+06    -233.736E+06    -103.903E+06    -12.6141E+06
            1825     128.935E-03     4.26314E-03     128.865E-03     323.134E-03    -159.864E-03    -163.270E-03    -162.777E-03     322.641E-03    -159.864E-03     30.7733E-03     331.637E-03     114.755E+06    -74.5904E+06    -139.155E+06    -206.816E+06    -142.855E+06    -203.116E+06    -74.5904E+06    -15.0632E+06
            1826     129.003E-03     5.11227E-03     128.902E-03     325.019E-03    -160.592E-03    -164.427E-03    -163.751E-03     324.343E-03    -160.592E-03     36.2637E-03     336.372E-03     113.095E+06    -48.2512E+06    -122.440E+06    -178.346E+06    -128.613E+06    -172.173E+06    -48.2512E+06    -17.2091E+06
            1827     129.082E-03     5.96090E-03     128.945E-03     326.654E-03    -161.246E-03    -165.408E-03    -164.564E-03     325.810E-03    -161.246E-03     40.6274E-03     340.859E-03     112.706E+06    -26.2923E+06    -105.210E+06    -155.354E+06    -114.867E+06    -145.697E+06    -26.2923E+06    -19.5204E+06
            1828     129.171E-03     6.80783E-03     128.992E-03     327.903E-03    -161.821E-03    -166.082E-03    -165.063E-03     326.884E-03    -161.821E-03     44.6991E-03     344.909E-03     112.286E+06    -7.41519E+06    -88.1223E+06    -135.646E+06    -102.022E+06    -121.747E+06    -7.41519E+06    -21.3974E+06
            1829     129.269E-03     7.65512E-03     129.042E-03     328.027E-03    -162.268E-03    -165.759E-03    -164.581E-03     326.849E-03    -162.268E-03     48.1117E-03     347.859E-03     110.065E+06     9.30300E+06    -70.7756E+06    -116.203E+06    -89.6625E+06    -97.3160E+06     9.30300E+06    -22.0897E+06
            1830     129.378E-03     8.50574E-03     129.098E-03     327.994E-03    -162.573E-03    -165.421E-03    -164.091E-03     326.664E-03    -162.573E-03     51.1222E-03     350.937E-03     107.768E+06     23.8672E+06    -52.7638E+06    -99.3225E+06    -78.9258E+06    -73.1605E+06     23.8672E+06    -22.8335E+06
            1831     129.491E-03     9.35347E-03     129.153E-03     328.246E-03    -162.784E-03    -165.462E-03    -163.935E-03     326.720E-03    -162.784E-03     54.7611E-03     354.807E-03     105.592E+06     35.4089E+06    -35.7474E+06    -85.8907E+06    -69.5971E+06    -52.0409E+06     35.4089E+06    -23.2916E+06
            1832     129.615E-03     10.2014E-03     129.212E-03     327.680E-03    -162.903E-03    -164.777E-03    -163.026E-03     325.929E-03    -162.903E-03     58.5545E-03     358.671E-03     102.458E+06     46.5640E+06    -12.0979E+06    -71.3001E+06    -60.2872E+06    -23.1108E+06     46.5640E+06    -22.1990E+06
            1833     129.749E-03     11.0525E-03     129.278E-03     327.019E-03    -162.934E-03    -164.084E-03    -162.110E-03     325.044E-03    -162.934E-03     62.0958E-03     363.506E-03     99.9161E+06     57.8499E+06     11.1101E+06    -56.8241E+06    -50.3235E+06     4.60944E+06     57.8499E+06    -19.7954E+06
            1834     129.892E-03     11.9035E-03     129.346E-03     327.388E-03    -162.899E-03    -164.489E-03    -162.137E-03     325.036E-03    -162.899E-03     67.7321E-03     371.401E-03     115.758E+06     86.0467E+06     49.2735E+06    -42.9672E+06    -40.0208E+06     60.9834E+06     71.3904E+06    -13.5619E+06
            1835     130.052E-03     12.7546E-03     129.425E-03     327.977E-03    -162.889E-03    -165.087E-03    -162.583E-03     325.472E-03    -162.889E-03     70.0782E-03     378.972E-03     141.824E+06     128.369E+06     87.7566E+06    -29.0581E+06    -28.6738E+06     127.985E+06     87.7566E+06    -4.60093E+06
            1836     130.211E-03     13.6047E-03     129.498E-03     330.005E-03    -162.990E-03    -167.014E-03    -163.564E-03     326.555E-03    -162.990E-03     81.5667E-03     396.917E-03     155.817E+06     158.161E+06     103.972E+06    -17.3336E+06    -17.2602E+06     158.088E+06     103.972E+06     936.831E+03
            1837     130.418E-03     14.4531E-03     129.614E-03     331.152E-03    -163.291E-03    -167.861E-03    -164.857E-03     328.148E-03    -163.291E-03     74.5557E-03     399.336E-03     167.475E+06     170.687E+06     139.898E+06    -8.19806E+06    -8.17784E+06     170.666E+06     139.898E+06      786.65E+03
            1838     130.157E-03     856.705E-06     130.154E-03     312.047E-03    -155.646E-03    -156.401E-03    -156.274E-03     312.007E-03    -155.733E-03     7.77784E-03     312.578E-03     128.702E+06    -175.387E+06    -182.803E+06    -307.596E+06    -182.061E+06    -307.319E+06    -176.406E+06    -4.62843E+06
            1839     130.178E-03     1.71182E-03     130.167E-03     314.360E-03    -156.447E-03    -157.914E-03    -157.794E-03     314.240E-03    -156.447E-03     14.6910E-03     315.926E-03     120.478E+06    -157.349E+06    -174.617E+06    -285.289E+06    -175.192E+06    -284.714E+06    -157.349E+06    -7.57825E+06
            1840     130.212E-03     2.56432E-03     130.186E-03     316.931E-03    -157.285E-03    -159.647E-03    -159.403E-03     316.688E-03    -157.285E-03     21.2463E-03     320.206E-03     113.330E+06    -131.170E+06    -163.834E+06    -256.969E+06    -165.127E+06    -255.676E+06    -131.170E+06    -10.5749E+06
            1841     130.256E-03     3.41576E-03     130.212E-03     319.356E-03    -158.146E-03    -161.210E-03    -160.791E-03     318.937E-03    -158.146E-03     28.0947E-03     324.886E-03     110.239E+06    -100.247E+06    -149.776E+06    -226.193E+06    -152.166E+06    -223.802E+06    -100.247E+06    -13.0032E+06
            1842     130.315E-03     4.26671E-03     130.245E-03     321.757E-03    -158.976E-03    -162.780E-03    -162.153E-03     321.130E-03    -158.976E-03     34.6332E-03     329.818E-03     110.998E+06    -69.9632E+06    -133.829E+06    -198.013E+06    -138.205E+06    -193.637E+06    -69.9632E+06    -15.8156E+06
            1843     130.385E-03     5.11604E-03     130.284E-03     323.753E-03    -159.739E-03    -164.013E-03    -163.178E-03     322.917E-03    -159.739E-03     40.1784E-03     334.508E-03     110.773E+06    -44.0404E+06    -116.451E+06    -171.457E+06    -123.732E+06    -164.176E+06    -44.0404E+06    -18.3259E+06
            1844     130.465E-03     5.96485E-03     130.328E-03     325.218E-03    -160.406E-03    -164.812E-03    -163.769E-03     324.176E-03    -160.406E-03     45.0235E-03     338.724E-03     110.320E+06    -22.1011E+06    -100.064E+06    -148.302E+06    -110.687E+06    -137.679E+06    -22.1011E+06    -19.7949E+06
            1845     130.556E-03     6.81453E-03     130.378E-03     326.131E-03    -160.956E-03    -165.175E-03    -163.945E-03     324.901E-03    -160.956E-03     49.0368E-03     342.375E-03     110.447E+06    -3.74851E+06    -83.8311E+06    -129.743E+06    -98.9727E+06    -114.602E+06    -3.74851E+06    -21.3469E+06
            1846     130.654E-03     7.66279E-03     130.429E-03     326.335E-03    -161.370E-03    -164.965E-03    -163.549E-03     324.919E-03    -161.370E-03     52.5612E-03     345.308E-03     109.578E+06     12.7405E+06    -66.9400E+06    -112.217E+06    -86.9804E+06    -92.1767E+06     12.7405E+06    -22.3686E+06
            1847     130.758E-03     8.51061E-03     130.481E-03     326.325E-03    -161.650E-03    -164.674E-03    -163.072E-03     324.723E-03    -161.650E-03     55.8461E-03     348.247E-03     107.273E+06     27.0813E+06    -49.3382E+06    -95.5281E+06    -76.1868E+06    -68.6795E+06     27.0813E+06    -22.4126E+06
            1848     130.875E-03     9.36226E-03     130.540E-03     326.390E-03    -161.836E-03    -164.554E-03    -162.795E-03     324.631E-03    -161.836E-03     58.5782E-03     351.917E-03     104.820E+06     38.1324E+06    -33.0428E+06    -82.2017E+06    -66.8761E+06    -48.3683E+06     38.1324E+06    -22.7417E+06
            1849     130.997E-03     10.2124E-03     130.599E-03     326.304E-03    -161.950E-03    -164.354E-03    -162.371E-03     324.321E-03    -161.950E-03     62.1949E-03     356.348E-03     103.031E+06     48.8923E+06    -9.85588E+06    -69.5687E+06    -57.9984E+06    -21.4262E+06     48.8923E+06    -22.7249E+06
            1850     131.128E-03     11.0624E-03     130.660E-03     326.532E-03    -162.024E-03    -164.508E-03    -162.242E-03     324.266E-03    -162.024E-03     66.5005E-03     362.153E-03     100.704E+06     58.9553E+06     10.5219E+06    -56.8045E+06    -49.3627E+06     3.08012E+06     58.9553E+06    -21.0565E+06
            1851     131.272E-03     11.9133E-03     130.731E-03     327.654E-03    -162.076E-03    -165.579E-03    -162.957E-03     325.033E-03    -162.076E-03     71.6327E-03     370.938E-03     111.995E+06     79.8536E+06     45.7510E+06    -43.9665E+06    -39.7488E+06     51.5128E+06     69.8741E+06    -17.4331E+06
            1852     131.431E-03     12.7632E-03     130.810E-03     329.407E-03    -162.208E-03    -167.199E-03    -164.508E-03     326.716E-03    -162.208E-03     72.8512E-03     379.991E-03     133.391E+06     115.062E+06     85.8393E+06    -30.2792E+06    -29.2158E+06     113.998E+06     85.8393E+06    -10.8503E+06
            1853     131.595E-03     13.6109E-03     130.889E-03     332.538E-03    -162.460E-03    -170.078E-03    -166.503E-03     328.963E-03    -162.460E-03     83.5869E-03     399.251E-03     151.741E+06     152.038E+06     97.0941E+06    -18.9472E+06    -18.7596E+06     151.850E+06     97.0941E+06    -3.51036E+06
            1854     131.800E-03     14.4584E-03     131.004E-03     333.849E-03    -162.955E-03    -170.894E-03    -167.799E-03     330.754E-03    -162.955E-03     76.2511E-03     401.732E-03     168.000E+06     171.314E+06     134.393E+06    -8.94004E+06    -8.90611E+06     171.258E+06     134.415E+06     423.200E+03
            1855     131.520E-03     856.299E-06     131.518E-03     310.678E-03    -154.811E-03    -155.867E-03    -155.724E-03     310.623E-03    -154.898E-03     9.22220E-03     311.174E-03     120.905E+06    -171.827E+06    -178.451E+06    -295.838E+06    -177.388E+06    -295.639E+06    -173.088E+06    -3.68204E+06
            1856     131.545E-03     1.71133E-03     131.534E-03     312.185E-03    -155.615E-03    -156.570E-03    -156.415E-03     312.030E-03    -155.615E-03     16.5936E-03     313.644E-03     112.963E+06    -152.180E+06    -170.720E+06    -273.028E+06    -171.252E+06    -272.495E+06    -152.180E+06    -7.04244E+06
            1857     131.581E-03     2.56666E-03     131.556E-03     314.089E-03    -156.194E-03    -157.895E-03    -157.576E-03     313.771E-03    -156.194E-03     24.1075E-03     317.123E-03     109.143E+06    -124.658E+06    -159.276E+06    -246.585E+06    -160.723E+06    -245.138E+06    -124.658E+06    -10.6596E+06
            1858     131.630E-03     3.42057E-03     131.585E-03     316.664E-03    -156.878E-03    -159.785E-03    -159.235E-03     316.113E-03    -156.878E-03     32.0707E-03     321.751E-03     106.220E+06    -94.9613E+06    -144.621E+06    -216.665E+06    -147.553E+06    -213.733E+06    -94.9613E+06    -13.9341E+06
            1859     131.691E-03     4.27206E-03     131.622E-03     319.128E-03    -157.635E-03    -161.493E-03    -160.682E-03     318.317E-03    -157.635E-03     39.2403E-03     326.583E-03     106.592E+06    -65.9986E+06    -128.512E+06    -188.894E+06    -133.560E+06    -183.846E+06    -65.9986E+06    -16.4000E+06
            1860     131.763E-03     5.12329E-03     131.664E-03     321.147E-03    -158.362E-03    -162.786E-03    -161.716E-03     320.078E-03    -158.362E-03     45.2999E-03     331.145E-03     107.829E+06    -40.3718E+06    -112.403E+06    -164.239E+06    -120.583E+06    -156.059E+06    -40.3718E+06    -18.5695E+06
            1861     131.846E-03     5.97365E-03     131.711E-03     322.558E-03    -158.997E-03    -163.561E-03    -162.241E-03     321.238E-03    -158.997E-03     50.4403E-03     335.134E-03     108.393E+06    -18.3095E+06    -95.6915E+06    -142.179E+06    -107.368E+06    -130.503E+06    -18.3095E+06    -19.9990E+06
            1862     131.937E-03     6.82244E-03     131.761E-03     323.114E-03    -159.497E-03    -163.617E-03    -162.077E-03     321.575E-03    -159.497E-03     54.4852E-03     338.284E-03     108.829E+06     650.646E+03    -78.9014E+06    -123.369E+06    -94.5235E+06    -107.747E+06     650.646E+03    -21.0682E+06
            1863     132.034E-03     7.67415E-03     131.811E-03     323.794E-03    -159.877E-03    -163.917E-03    -162.175E-03     322.051E-03    -159.877E-03     58.0786E-03     341.561E-03     108.658E+06     16.4155E+06    -62.6166E+06    -107.488E+06    -83.6927E+06    -86.4121E+06     16.4155E+06    -22.2147E+06
            1864     132.141E-03     8.52588E-03     131.866E-03     324.412E-03    -160.182E-03    -164.231E-03    -162.291E-03     322.473E-03    -160.182E-03     61.3973E-03     345.083E-03     106.868E+06     29.6387E+06    -46.4405E+06    -92.5350E+06    -73.4095E+06    -65.5660E+06     29.6387E+06    -22.5334E+06
            1865     132.255E-03     9.37396E-03     131.922E-03     324.437E-03    -160.415E-03    -164.022E-03    -161.893E-03     322.308E-03    -160.415E-03     64.2329E-03     348.766E-03     104.470E+06     42.4795E+06    -28.7569E+06    -77.4062E+06    -62.2575E+06    -43.9056E+06     42.4795E+06    -22.3648E+06
            1866     132.376E-03     10.2260E-03     131.980E-03     325.230E-03    -160.598E-03    -164.632E-03    -162.304E-03     322.902E-03    -160.598E-03     67.2637E-03     354.207E-03     102.125E+06     54.0908E+06    -6.92561E+06    -63.5091E+06    -52.4619E+06    -17.9728E+06     54.0908E+06    -21.9367E+06
            1867     132.509E-03     11.0773E-03     132.045E-03     326.999E-03    -160.815E-03    -166.185E-03    -163.663E-03     324.478E-03    -160.815E-03     70.3215E-03     361.743E-03     100.139E+06     63.2520E+06     11.3709E+06    -52.1252E+06    -44.3119E+06     3.55759E+06     63.2520E+06    -20.8162E+06
            1868     132.652E-03     11.9262E-03     132.115E-03     329.364E-03    -161.081E-03    -168.283E-03    -165.422E-03     326.503E-03    -161.081E-03     75.1766E-03     372.018E-03     108.955E+06     77.2238E+06     47.5083E+06    -41.3970E+06    -36.6061E+06     47.2851E+06     72.6560E+06    -18.7021E+06
            1869     132.816E-03     12.7736E-03     132.200E-03     331.946E-03    -161.458E-03    -170.488E-03    -167.582E-03     329.040E-03    -161.458E-03     76.1456E-03     382.131E-03     126.550E+06     103.329E+06     86.4366E+06    -30.5731E+06    -29.0389E+06     101.795E+06     86.4366E+06    -13.2556E+06
            1870     132.981E-03     13.6192E-03     132.281E-03     335.623E-03    -161.929E-03    -173.694E-03    -169.977E-03     331.906E-03    -161.929E-03     85.9250E-03     401.814E-03     146.874E+06     142.333E+06     92.9711E+06    -21.5461E+06    -21.1970E+06     141.984E+06     92.9711E+06    -6.62118E+06
            1871     133.188E-03     14.4618E-03     132.401E-03     337.025E-03    -162.655E-03    -174.371E-03    -171.221E-03     333.876E-03    -162.655E-03     77.2995E-03     404.347E-03     168.959E+06     169.203E+06     130.734E+06    -12.2005E+06    -12.1390E+06     167.710E+06     132.166E+06    -2.43022E+06
            1872     132.882E-03     856.883E-06     132.880E-03     308.637E-03    -153.737E-03    -154.900E-03    -154.624E-03     308.565E-03    -153.941E-03     10.6279E-03     309.085E-03     114.558E+06    -168.055E+06    -173.345E+06    -285.116E+06    -173.277E+06    -284.942E+06    -168.298E+06    -4.02176E+06
            1873     132.909E-03     1.71417E-03     132.898E-03     308.918E-03    -154.158E-03    -154.760E-03    -154.338E-03     308.700E-03    -154.362E-03     19.5376E-03     310.252E-03     106.026E+06    -147.637E+06    -164.925E+06    -260.960E+06    -165.628E+06    -260.256E+06    -147.637E+06    -7.44368E+06
            1874     132.945E-03     2.57070E-03     132.920E-03     310.625E-03    -154.645E-03    -155.981E-03    -155.544E-03     310.189E-03    -154.645E-03     28.1445E-03     313.334E-03     104.197E+06    -118.287E+06    -152.712E+06    -235.037E+06    -154.278E+06    -233.472E+06    -118.287E+06    -10.9968E+06
            1875     132.999E-03     3.42595E-03     132.955E-03     312.803E-03    -155.157E-03    -157.645E-03    -156.941E-03     312.098E-03    -155.157E-03     36.1249E-03     317.356E-03     102.855E+06    -89.1682E+06    -138.949E+06    -207.144E+06    -141.982E+06    -204.111E+06    -89.1682E+06    -13.6082E+06
            1876     133.063E-03     4.28045E-03     132.994E-03     314.843E-03    -155.744E-03    -159.098E-03    -158.074E-03     313.818E-03    -155.744E-03     43.7809E-03     321.550E-03     102.501E+06    -61.3167E+06    -123.477E+06    -179.463E+06    -128.940E+06    -174.000E+06    -61.3167E+06    -16.3342E+06
            1877     133.138E-03     5.13345E-03     133.039E-03     316.682E-03    -156.322E-03    -160.360E-03    -158.988E-03     315.310E-03    -156.322E-03     50.8573E-03     325.689E-03     105.207E+06    -35.7251E+06    -107.134E+06    -156.489E+06    -115.578E+06    -148.045E+06    -35.7251E+06    -18.3684E+06
            1878     133.222E-03     5.98544E-03     133.088E-03     317.944E-03    -156.832E-03    -161.112E-03    -159.413E-03     316.245E-03    -156.832E-03     56.7573E-03     329.318E-03     107.015E+06    -13.7072E+06    -90.5277E+06    -135.922E+06    -102.646E+06    -123.804E+06    -13.7072E+06    -19.8656E+06
            1879     133.312E-03     6.83959E-03     133.137E-03     319.475E-03    -157.284E-03    -162.191E-03    -160.208E-03     317.492E-03    -157.284E-03     61.5457E-03     333.160E-03     107.665E+06     4.92884E+06    -74.4876E+06    -117.608E+06    -90.4501E+06    -101.645E+06     4.92884E+06    -20.6990E+06
            1880     133.411E-03     7.69073E-03     133.190E-03     320.917E-03    -157.717E-03    -163.200E-03    -161.009E-03     318.726E-03    -157.717E-03     64.8573E-03     337.222E-03     107.180E+06     20.3962E+06    -58.5265E+06    -101.615E+06    -79.5149E+06    -80.6263E+06     20.3962E+06    -21.3428E+06
            1881     133.519E-03     8.54047E-03     133.246E-03     321.590E-03    -158.108E-03    -163.482E-03    -161.118E-03     319.226E-03    -158.108E-03     67.3970E-03     340.954E-03     106.594E+06     34.0046E+06    -41.7635E+06    -87.8521E+06    -68.9017E+06    -60.7139E+06     34.0046E+06    -22.6187E+06
            1882     133.631E-03     9.39510E-03     133.300E-03     322.967E-03    -158.464E-03    -164.503E-03    -161.960E-03     320.424E-03    -158.464E-03     70.1518E-03     345.931E-03     105.254E+06     46.4970E+06    -24.7606E+06    -74.3705E+06    -58.4246E+06    -40.7064E+06     46.4970E+06    -22.9676E+06
            1883     133.755E-03     10.2450E-03     133.362E-03     325.563E-03    -158.865E-03    -166.698E-03    -163.975E-03     322.839E-03    -158.865E-03     72.9908E-03     353.246E-03     102.171E+06     57.6261E+06    -5.78569E+06    -60.1226E+06    -49.4833E+06    -16.4250E+06     57.6261E+06    -21.0517E+06
            1884     133.890E-03     11.0926E-03     133.429E-03     328.874E-03    -159.379E-03    -169.495E-03    -166.645E-03     326.024E-03    -159.379E-03     75.1077E-03     362.612E-03     100.711E+06     67.3095E+06     12.2510E+06    -48.8697E+06    -41.7370E+06     5.11833E+06     67.3095E+06    -19.5465E+06
            1885     134.036E-03     11.9393E-03     133.504E-03     332.310E-03    -159.979E-03    -172.331E-03    -169.251E-03     329.230E-03    -159.979E-03     78.5513E-03     374.199E-03     106.716E+06     76.9156E+06     48.9055E+06    -38.4780E+06    -34.0558E+06     45.1937E+06     76.2052E+06    -17.6185E+06
            1886     134.203E-03     12.7837E-03     133.593E-03     335.230E-03    -160.678E-03    -174.551E-03    -171.484E-03     332.163E-03    -160.678E-03     78.7784E-03     384.684E-03     119.441E+06     94.9105E+06     87.1346E+06    -28.1409E+06    -26.6098E+06     92.0838E+06     88.4302E+06    -12.9674E+06
            1887     134.371E-03     13.6255E-03     133.678E-03     338.994E-03    -161.414E-03    -177.580E-03    -173.738E-03     335.152E-03    -161.414E-03     88.0483E-03     404.163E-03     141.200E+06     135.850E+06     93.2922E+06    -19.5727E+06    -19.0483E+06     135.325E+06     93.2922E+06    -8.28163E+06
            1888     134.582E-03     14.4666E-03     133.802E-03     340.496E-03    -162.365E-03    -178.130E-03    -174.927E-03     337.292E-03    -162.365E-03     78.4382E-03     406.998E-03     163.166E+06     166.463E+06     125.999E+06    -10.0618E+06    -9.89969E+06     162.625E+06     129.675E+06    -4.88581E+06
            1889     134.243E-03     857.925E-06     134.240E-03     304.253E-03    -151.752E-03    -152.501E-03    -152.081E-03     304.163E-03    -152.082E-03     11.9256E-03     304.637E-03     110.404E+06    -161.186E+06    -166.416E+06    -274.069E+06    -166.168E+06    -273.878E+06    -161.626E+06    -3.21526E+06
            1890     134.264E-03     1.71777E-03     134.253E-03     304.603E-03    -151.946E-03    -152.657E-03    -152.174E-03     304.324E-03    -152.150E-03     21.8293E-03     305.732E-03     99.2763E+06    -142.328E+06    -158.198E+06    -248.339E+06    -158.962E+06    -247.574E+06    -142.328E+06    -7.80097E+06
            1891     134.307E-03     2.57652E-03     134.283E-03     305.788E-03    -152.354E-03    -153.435E-03    -152.860E-03     305.213E-03    -152.354E-03     32.0570E-03     308.105E-03     98.6230E+06    -114.129E+06    -146.779E+06    -224.604E+06    -148.458E+06    -222.925E+06    -114.129E+06    -10.9745E+06
            1892     134.361E-03     3.43350E-03     134.317E-03     307.316E-03    -152.682E-03    -154.634E-03    -153.682E-03     306.363E-03    -152.682E-03     41.4619E-03     311.200E-03     99.0691E+06    -84.1921E+06    -133.318E+06    -197.898E+06    -136.554E+06    -194.662E+06    -84.1921E+06    -13.6354E+06
            1893     134.427E-03     4.29081E-03     134.358E-03     308.908E-03    -153.053E-03    -155.855E-03    -154.475E-03     307.528E-03    -153.053E-03     50.2065E-03     314.658E-03     99.0645E+06    -56.0313E+06    -118.106E+06    -170.080E+06    -123.623E+06    -164.562E+06    -56.0313E+06    -15.7541E+06
            1894     134.505E-03     5.14754E-03     134.406E-03     310.373E-03    -153.431E-03    -156.942E-03    -155.140E-03     308.571E-03    -153.431E-03     57.6562E-03     318.151E-03     102.535E+06    -30.9190E+06    -102.164E+06    -148.365E+06    -110.568E+06    -139.961E+06    -30.9190E+06    -17.6334E+06
            1895     134.589E-03     6.00512E-03     134.455E-03     312.476E-03    -153.838E-03    -158.638E-03    -156.469E-03     310.307E-03    -153.838E-03     63.6304E-03     322.319E-03     105.304E+06    -9.22826E+06    -86.5342E+06    -129.110E+06    -98.1994E+06    -117.445E+06    -9.22826E+06    -18.7831E+06
            1896     134.682E-03     6.85941E-03     134.508E-03     314.919E-03    -154.320E-03    -160.599E-03    -158.112E-03     312.432E-03    -154.320E-03     68.4458E-03     326.971E-03     106.245E+06     8.95717E+06    -70.7029E+06    -111.654E+06    -86.7153E+06    -95.6421E+06     8.95717E+06    -19.8153E+06
            1897     134.786E-03     7.71229E-03     134.566E-03     316.814E-03    -154.845E-03    -161.969E-03    -159.230E-03     314.075E-03    -154.845E-03     72.0866E-03     331.421E-03     106.309E+06     24.7143E+06    -53.8725E+06    -96.2421E+06    -75.1236E+06    -74.9910E+06     24.7143E+06    -21.0562E+06
            1898     134.890E-03     8.56725E-03     134.618E-03     319.427E-03    -155.408E-03    -164.018E-03    -161.087E-03     316.496E-03    -155.408E-03     74.9728E-03     337.085E-03     105.671E+06     38.7406E+06    -37.8161E+06    -81.7788E+06    -64.4948E+06    -55.1002E+06     38.7406E+06    -21.3182E+06
            1899     135.008E-03     9.41632E-03     134.679E-03     323.131E-03    -156.076E-03    -167.055E-03    -164.034E-03     320.110E-03    -156.076E-03     76.6558E-03     344.552E-03     104.847E+06     49.7848E+06    -23.1407E+06    -70.3048E+06    -56.1668E+06    -37.2787E+06     49.7848E+06    -21.4651E+06
            1900     135.134E-03     10.2654E-03     134.743E-03     327.005E-03    -156.868E-03    -170.137E-03    -167.063E-03     323.931E-03    -156.868E-03     77.9008E-03     353.310E-03     102.621E+06     59.8140E+06    -5.55988E+06    -58.3554E+06    -47.4130E+06    -16.5023E+06     59.8140E+06    -21.0291E+06
            1901     135.275E-03     11.1125E-03     134.818E-03     331.324E-03    -157.778E-03    -173.546E-03    -170.341E-03     328.119E-03    -157.778E-03     80.1890E-03     363.779E-03     100.626E+06     70.5540E+06     12.9594E+06    -45.5747E+06    -38.1942E+06     5.57890E+06     70.5540E+06    -19.1212E+06
            1902     135.427E-03     11.9536E-03     134.898E-03     335.859E-03    -158.763E-03    -177.096E-03    -173.669E-03     332.432E-03    -158.763E-03     83.5386E-03     376.546E-03     103.414E+06     79.2212E+06     46.3284E+06    -34.3442E+06    -30.3975E+06     42.3818E+06     79.2212E+06    -16.1268E+06
            1903     135.594E-03     12.7939E-03     134.989E-03     339.442E-03    -159.832E-03    -179.610E-03    -176.228E-03     336.060E-03    -159.832E-03     83.4479E-03     387.847E-03     113.703E+06     92.9571E+06     86.1218E+06    -23.8698E+06    -22.3393E+06     86.0134E+06     91.5350E+06    -12.5607E+06
            1904     135.768E-03     13.6328E-03     135.082E-03     343.064E-03    -160.899E-03    -182.165E-03    -178.126E-03     339.025E-03    -160.899E-03     91.2613E-03     407.055E-03     135.989E+06     131.986E+06     98.7416E+06    -15.2704E+06    -14.6182E+06     131.334E+06     98.7416E+06    -9.25774E+06
            1905     135.977E-03     14.4701E-03     135.205E-03     344.367E-03    -162.099E-03    -182.268E-03    -178.994E-03     341.093E-03    -162.099E-03     80.0531E-03     409.810E-03     156.101E+06     161.477E+06     124.137E+06    -7.81683E+06    -7.61861E+06     155.761E+06     129.654E+06    -5.04968E+06
            1906     135.591E-03     862.948E-06     135.589E-03     297.282E-03    -148.299E-03    -148.983E-03    -148.734E-03     297.159E-03    -148.425E-03     13.6771E-03     297.584E-03     103.558E+06    -156.669E+06    -161.029E+06    -262.318E+06    -159.784E+06    -261.967E+06    -158.265E+06    -4.94799E+06
            1907     135.617E-03     1.72278E-03     135.606E-03     298.107E-03    -148.696E-03    -149.411E-03    -149.024E-03     297.720E-03    -148.696E-03     25.4375E-03     298.988E-03     91.7197E+06    -139.028E+06    -153.312E+06    -236.704E+06    -154.007E+06    -236.009E+06    -139.028E+06    -7.29810E+06
            1908     135.658E-03     2.58361E-03     135.633E-03     298.571E-03    -148.868E-03    -149.703E-03    -148.905E-03     297.772E-03    -148.868E-03     37.1980E-03     300.412E-03     90.7859E+06    -112.016E+06    -143.533E+06    -214.028E+06    -145.211E+06    -212.350E+06    -112.016E+06    -10.3353E+06
            1909     135.714E-03     3.44695E-03     135.670E-03     299.559E-03    -148.997E-03    -150.562E-03    -149.256E-03     298.253E-03    -148.997E-03     47.9965E-03     302.655E-03     92.7270E+06    -81.8733E+06    -130.809E+06    -188.364E+06    -133.911E+06    -185.261E+06    -81.8733E+06    -12.7613E+06
            1910     135.783E-03     4.30757E-03     135.714E-03     301.180E-03    -149.202E-03    -151.978E-03    -150.129E-03     299.331E-03    -149.202E-03     57.4885E-03     305.794E-03     95.3472E+06    -52.5020E+06    -115.800E+06    -161.942E+06    -121.410E+06    -156.333E+06    -52.5020E+06    -14.5944E+06
            1911     135.859E-03     5.16879E-03     135.761E-03     303.612E-03    -149.538E-03    -154.074E-03    -151.730E-03     301.268E-03    -149.538E-03     65.1278E-03     309.932E-03     99.4173E+06    -27.3979E+06    -99.8413E+06    -140.695E+06    -108.659E+06    -131.877E+06    -27.3979E+06    -16.6438E+06
            1912     135.949E-03     6.02735E-03     135.815E-03     306.652E-03    -150.035E-03    -156.618E-03    -153.832E-03     303.866E-03    -150.035E-03     71.4057E-03     314.813E-03     103.395E+06    -6.12378E+06    -83.7398E+06    -123.455E+06    -95.9214E+06    -111.274E+06    -6.12378E+06    -18.1438E+06
            1913     136.048E-03     6.88372E-03     135.873E-03     309.318E-03    -150.638E-03    -158.680E-03    -155.545E-03     306.183E-03    -150.638E-03     76.1712E-03     319.609E-03     104.618E+06     12.7832E+06    -66.0295E+06    -105.891E+06    -83.0273E+06    -88.8937E+06     12.7832E+06    -19.4857E+06
            1914     136.148E-03     7.74174E-03     135.928E-03     312.989E-03    -151.344E-03    -161.645E-03    -158.280E-03     309.624E-03    -151.344E-03     79.5332E-03     325.664E-03     105.193E+06     28.0464E+06    -50.7547E+06    -91.3852E+06    -72.0573E+06    -70.0826E+06     28.0464E+06    -20.2403E+06
            1915     136.262E-03     8.59380E-03     135.991E-03     318.357E-03    -152.249E-03    -166.108E-03    -162.623E-03     314.872E-03    -152.249E-03     81.8100E-03     333.970E-03     104.759E+06     41.1382E+06    -36.4960E+06    -77.9918E+06    -62.5855E+06    -51.9023E+06     41.1382E+06    -19.8075E+06
            1916     136.384E-03     9.44379E-03     136.057E-03     323.954E-03    -153.377E-03    -170.577E-03    -167.030E-03     320.407E-03    -153.377E-03     83.4131E-03     343.428E-03     103.605E+06     53.2220E+06    -20.5710E+06    -65.1721E+06    -53.2657E+06    -32.4774E+06     53.2220E+06    -19.6640E+06
            1917     136.517E-03     10.2880E-03     136.129E-03     329.350E-03    -154.655E-03    -174.695E-03    -171.088E-03     325.743E-03    -154.655E-03     84.8829E-03     353.887E-03     102.271E+06     62.9277E+06    -3.82517E+06    -54.7051E+06    -44.5034E+06    -14.0269E+06     62.9277E+06    -20.2052E+06
            1918     136.660E-03     11.1291E-03     136.206E-03     334.355E-03    -156.023E-03    -178.331E-03    -174.660E-03     330.683E-03    -156.023E-03     86.3834E-03     365.137E-03     100.466E+06     71.7876E+06     11.5539E+06    -44.1770E+06    -36.6310E+06     4.00799E+06     71.7876E+06    -18.8212E+06
            1919     136.820E-03     11.9712E-03     136.295E-03     339.397E-03    -157.423E-03    -181.974E-03    -178.147E-03     335.571E-03    -157.423E-03     88.9748E-03     378.433E-03     102.197E+06     80.9623E+06     43.1128E+06    -32.7427E+06    -28.6613E+06     39.0314E+06     80.9623E+06    -15.9347E+06
            1920     136.993E-03     12.8074E-03     136.393E-03     343.852E-03    -158.878E-03    -184.974E-03    -181.297E-03     340.175E-03    -158.878E-03     87.8155E-03     390.694E-03     111.688E+06     93.6493E+06     83.2500E+06    -22.6590E+06    -21.0397E+06     81.6899E+06     93.5902E+06    -12.4838E+06
            1921     137.169E-03     13.6411E-03     136.489E-03     347.817E-03    -160.318E-03    -187.500E-03    -183.257E-03     343.575E-03    -160.318E-03     94.5005E-03     410.087E-03     132.374E+06     127.208E+06     100.805E+06    -15.1180E+06    -14.5534E+06     124.991E+06     102.458E+06    -7.96877E+06
            1922     137.382E-03     14.4742E-03     136.617E-03     349.027E-03    -161.833E-03    -187.194E-03    -183.797E-03     345.631E-03    -161.833E-03     82.2920E-03     413.077E-03     152.766E+06     157.879E+06     124.275E+06    -8.06929E+06    -7.96397E+06     148.861E+06     133.187E+06    -3.35703E+06
            1923     136.932E-03     865.159E-06     136.929E-03     287.064E-03    -143.222E-03    -143.843E-03    -143.501E-03     286.877E-03    -143.376E-03     16.3275E-03     287.274E-03     94.4476E+06    -151.791E+06    -158.152E+06    -249.230E+06    -157.380E+06    -248.846E+06    -152.947E+06    -4.95925E+06
            1924     136.958E-03     1.73203E-03     136.947E-03     287.861E-03    -143.522E-03    -144.339E-03    -143.804E-03     287.326E-03    -143.522E-03     29.6250E-03     288.491E-03     84.6502E+06    -137.188E+06    -151.556E+06    -227.760E+06    -152.265E+06    -227.050E+06    -137.188E+06    -7.08749E+06
            1925     136.998E-03     2.59884E-03     136.973E-03     288.926E-03    -143.719E-03    -145.207E-03    -144.137E-03     287.855E-03    -143.719E-03     42.4757E-03     290.254E-03     82.6130E+06    -110.676E+06    -142.621E+06    -203.964E+06    -144.096E+06    -202.488E+06    -110.676E+06    -9.10933E+06
            1926     137.055E-03     3.46307E-03     137.012E-03     290.218E-03    -143.935E-03    -146.283E-03    -144.581E-03     288.516E-03    -143.935E-03     54.0437E-03     292.521E-03     86.3771E+06    -79.9907E+06    -129.556E+06    -179.371E+06    -132.660E+06    -176.268E+06    -79.9907E+06    -11.6024E+06
            1927     137.124E-03     4.33020E-03     137.055E-03     292.466E-03    -144.229E-03    -148.237E-03    -145.885E-03     290.114E-03    -144.229E-03     63.9238E-03     295.937E-03     90.6404E+06    -50.4197E+06    -113.730E+06    -154.030E+06    -119.468E+06    -148.292E+06    -50.4197E+06    -13.6710E+06
            1928     137.207E-03     5.19374E-03     137.109E-03     295.951E-03    -144.712E-03    -151.239E-03    -148.213E-03     292.925E-03    -144.712E-03     73.0365E-03     300.787E-03     96.0575E+06    -24.7909E+06    -98.4306E+06    -133.353E+06    -106.720E+06    -125.064E+06    -24.7909E+06    -14.7768E+06
            1929     137.300E-03     6.05451E-03     137.167E-03     299.637E-03    -145.379E-03    -154.258E-03    -150.652E-03     296.031E-03    -145.379E-03     80.3564E-03     306.109E-03     100.344E+06    -4.06653E+06    -82.1596E+06    -117.178E+06    -95.3715E+06    -103.966E+06    -4.06653E+06    -16.4368E+06
            1930     137.399E-03     6.91656E-03     137.225E-03     304.459E-03    -146.237E-03    -158.222E-03    -154.265E-03     300.502E-03    -146.237E-03     85.0575E-03     312.770E-03     102.314E+06     13.0233E+06    -66.1225E+06    -102.453E+06    -85.3148E+06    -83.2610E+06     13.0233E+06    -17.7822E+06
            1931     137.510E-03     7.77184E-03     137.290E-03     310.988E-03    -147.381E-03    -163.607E-03    -159.461E-03     306.842E-03    -147.381E-03     88.2051E-03     321.510E-03     104.211E+06     28.2933E+06    -51.1771E+06    -89.6554E+06    -75.3176E+06    -65.5149E+06     28.2933E+06    -18.1811E+06
            1932     137.631E-03     8.62371E-03     137.361E-03     317.837E-03    -148.803E-03    -169.033E-03    -164.794E-03     313.597E-03    -148.803E-03     90.3369E-03     331.221E-03     104.688E+06     41.5321E+06    -35.2127E+06    -77.6854E+06    -65.3829E+06    -47.5151E+06     41.5321E+06    -18.8629E+06
            1933     137.761E-03     9.47002E-03     137.435E-03     324.710E-03    -150.432E-03    -174.278E-03    -170.035E-03     320.467E-03    -150.432E-03     91.5113E-03     341.884E-03     103.860E+06     52.8748E+06    -19.8023E+06    -66.0406E+06    -56.0739E+06    -29.7690E+06     52.8748E+06    -18.7322E+06
            1934     137.902E-03     10.3143E-03     137.516E-03     331.717E-03    -152.211E-03    -179.506E-03    -175.275E-03     327.486E-03    -152.211E-03     92.5808E-03     354.009E-03     102.890E+06     62.1543E+06    -3.92109E+06    -56.2522E+06    -48.5523E+06    -11.6210E+06     62.1543E+06    -18.1976E+06
            1935     138.054E-03     11.1535E-03     137.602E-03     338.216E-03    -154.091E-03    -184.125E-03    -179.951E-03     334.042E-03    -154.091E-03     92.9995E-03     366.900E-03     102.155E+06     70.6155E+06     11.4349E+06    -47.2724E+06    -40.7851E+06     4.94753E+06     70.6155E+06    -18.3388E+06
            1936     138.216E-03     11.9868E-03     137.695E-03     343.934E-03    -155.982E-03    -187.952E-03    -183.709E-03     339.691E-03    -155.982E-03     94.6140E-03     380.951E-03     104.482E+06     79.4665E+06     42.0096E+06    -36.7905E+06    -32.3886E+06     37.6078E+06     79.4665E+06    -16.8976E+06
            1937     138.398E-03     12.8201E-03     137.803E-03     348.481E-03    -157.867E-03    -190.614E-03    -186.671E-03     344.537E-03    -157.867E-03     91.7175E-03     393.437E-03     110.524E+06     90.5310E+06     76.2977E+06    -26.3280E+06    -24.6479E+06     74.6177E+06     90.5310E+06    -12.5236E+06
            1938     138.576E-03     13.6503E-03     137.903E-03     352.574E-03    -159.686E-03    -192.887E-03    -188.571E-03     348.257E-03    -159.686E-03     96.2649E-03     412.759E-03     129.123E+06     122.195E+06     94.7985E+06    -17.8093E+06    -17.3014E+06     116.466E+06     100.020E+06    -7.01621E+06
            1939     138.792E-03     14.4795E-03     138.035E-03     353.927E-03    -161.537E-03    -192.390E-03    -188.965E-03     350.502E-03    -161.537E-03     83.4394E-03     416.248E-03     150.839E+06     154.636E+06     121.452E+06    -9.60809E+06    -9.54341E+06     143.562E+06     132.460E+06    -2.89645E+06
            1940     138.255E-03     872.915E-06     138.252E-03     273.753E-03    -136.619E-03    -137.134E-03    -136.626E-03     273.520E-03    -136.894E-03     18.2460E-03     273.886E-03     83.2674E+06    -150.951E+06    -161.201E+06    -238.835E+06    -158.349E+06    -238.625E+06    -154.013E+06    -3.08414E+06
            1941     138.282E-03     1.74459E-03     138.271E-03     274.891E-03    -136.887E-03    -138.004E-03    -137.327E-03     274.215E-03    -136.887E-03     32.5437E-03     275.304E-03     76.8321E+06    -135.499E+06    -153.178E+06    -219.246E+06    -153.741E+06    -218.683E+06    -135.499E+06    -5.62122E+06
            1942     138.325E-03     2.61476E-03     138.300E-03     276.812E-03    -137.208E-03    -139.604E-03    -138.258E-03     275.466E-03    -137.208E-03     46.6755E-03     277.702E-03     75.4938E+06    -109.276E+06    -143.194E+06    -195.277E+06    -144.481E+06    -193.990E+06    -109.276E+06    -7.80428E+06
            1943     138.382E-03     3.48685E-03     138.338E-03     279.448E-03    -137.658E-03    -141.791E-03    -139.618E-03     277.276E-03    -137.658E-03     59.8983E-03     281.036E-03     79.1744E+06    -80.1149E+06    -130.237E+06    -170.919E+06    -133.285E+06    -167.871E+06    -80.1149E+06    -10.2123E+06
            1944     138.454E-03     4.35469E-03     138.386E-03     282.987E-03    -138.247E-03    -144.740E-03    -141.667E-03     279.914E-03    -138.247E-03     71.8265E-03     285.453E-03     84.3608E+06    -52.4974E+06    -116.904E+06    -147.500E+06    -121.953E+06    -142.451E+06    -52.4974E+06    -11.1434E+06
            1945     138.541E-03     5.22256E-03     138.443E-03     287.121E-03    -139.003E-03    -148.118E-03    -144.230E-03     283.233E-03    -139.003E-03     81.6328E-03     290.666E-03     90.9933E+06    -27.2389E+06    -102.433E+06    -128.257E+06    -110.968E+06    -119.723E+06    -27.2389E+06    -11.2630E+06
            1946     138.638E-03     6.09046E-03     138.504E-03     292.852E-03    -139.988E-03    -152.864E-03    -148.383E-03     288.370E-03    -139.988E-03     88.8055E-03     297.697E-03     96.0970E+06    -6.00457E+06    -85.6889E+06    -112.634E+06    -100.928E+06    -97.3944E+06    -6.00457E+06    -12.2310E+06
            1947     138.747E-03     6.95035E-03     138.573E-03     300.745E-03    -141.333E-03    -159.412E-03    -154.498E-03     295.831E-03    -141.333E-03     94.4586E-03     307.139E-03     99.7980E+06     11.1755E+06    -68.9961E+06    -100.534E+06    -91.7960E+06    -77.7339E+06     11.1755E+06    -13.5342E+06
            1948     138.869E-03     7.80579E-03     138.649E-03     309.246E-03    -143.056E-03    -166.190E-03    -161.041E-03     304.097E-03    -143.056E-03     98.2701E-03     317.673E-03     102.821E+06     26.0497E+06    -51.5697E+06    -90.4900E+06    -82.4192E+06    -59.6404E+06     26.0497E+06    -15.2624E+06
            1949     138.998E-03     8.65586E-03     138.728E-03     317.648E-03    -145.057E-03    -172.592E-03    -167.391E-03     312.447E-03    -145.057E-03     100.342E-03     328.791E-03     104.594E+06     38.6111E+06    -34.9105E+06    -81.0513E+06    -73.6249E+06    -42.3369E+06     38.6111E+06    -16.5077E+06
            1950     139.140E-03     9.50193E-03     138.815E-03     326.331E-03    -147.259E-03    -179.072E-03    -173.953E-03     321.212E-03    -147.259E-03     101.121E-03     341.187E-03     105.272E+06     48.6370E+06    -19.9948E+06    -72.4332E+06    -65.4768E+06    -26.9511E+06     48.6370E+06    -17.4877E+06
            1951     139.288E-03     10.3404E-03     138.904E-03     334.816E-03    -149.614E-03    -185.203E-03    -180.286E-03     329.899E-03    -149.614E-03     100.570E-03     354.739E-03     104.611E+06     58.5678E+06    -2.04425E+06    -61.9847E+06    -55.6134E+06    -8.41551E+06     58.5678E+06    -18.4046E+06
            1952     139.451E-03     11.1747E-03     139.003E-03     342.618E-03    -152.061E-03    -190.557E-03    -185.897E-03     337.958E-03    -152.061E-03     99.1833E-03     368.950E-03     103.680E+06     67.4602E+06     14.1886E+06    -51.9120E+06    -45.7554E+06     8.03207E+06     67.4602E+06    -19.1976E+06
            1953     139.621E-03     12.0064E-03     139.104E-03     349.358E-03    -154.501E-03    -194.857E-03    -190.325E-03     344.827E-03    -154.501E-03     98.8840E-03     383.976E-03     104.851E+06     74.9490E+06     40.3609E+06    -41.6235E+06    -37.0792E+06     35.8166E+06     74.9490E+06    -17.8654E+06
            1954     139.808E-03     12.8331E-03     139.218E-03     353.698E-03    -156.875E-03    -196.823E-03    -192.740E-03     349.614E-03    -156.875E-03     94.3014E-03     396.470E-03     109.003E+06     84.6220E+06     69.8797E+06    -30.9345E+06    -28.7844E+06     67.7296E+06     84.6220E+06    -14.2224E+06
            1955     139.992E-03     13.6581E-03     139.324E-03     357.466E-03    -159.101E-03    -198.366E-03    -194.048E-03     353.148E-03    -159.101E-03     97.2921E-03     415.367E-03     125.153E+06     114.715E+06     89.7306E+06    -20.6397E+06    -19.6629E+06     108.062E+06     95.4069E+06    -9.93603E+06
            1956     140.208E-03     14.4824E-03     139.458E-03     358.440E-03    -161.281E-03    -197.159E-03    -193.780E-03     355.061E-03    -161.281E-03     83.6587E-03     418.867E-03     146.129E+06     149.248E+06     117.083E+06    -10.0617E+06    -9.82662E+06     136.156E+06     129.940E+06    -4.70037E+06
            1957     139.559E-03     878.101E-06     139.556E-03     258.897E-03    -129.106E-03    -129.791E-03    -129.389E-03     258.616E-03    -129.227E-03     19.3470E-03     258.982E-03     73.6598E+06    -153.613E+06    -164.375E+06    -232.056E+06    -161.387E+06    -231.982E+06    -156.675E+06    -2.01709E+06
            1958     139.587E-03     1.75674E-03     139.576E-03     260.384E-03    -129.462E-03    -130.922E-03    -130.090E-03     259.552E-03    -129.462E-03     35.0612E-03     260.654E-03     66.8810E+06    -138.956E+06    -156.955E+06    -212.459E+06    -157.208E+06    -212.207E+06    -138.956E+06    -2.87214E+06
            1959     139.633E-03     2.63570E-03     139.608E-03     263.066E-03    -129.893E-03    -133.173E-03    -131.521E-03     261.414E-03    -129.893E-03     50.4862E-03     263.657E-03     64.8960E+06    -114.486E+06    -149.727E+06    -188.576E+06    -150.390E+06    -187.913E+06    -114.486E+06    -4.40322E+06
            1960     139.693E-03     3.51093E-03     139.648E-03     267.141E-03    -130.572E-03    -136.569E-03    -133.886E-03     264.458E-03    -130.572E-03     65.1433E-03     268.207E-03     70.0247E+06    -86.1039E+06    -139.971E+06    -163.938E+06    -141.696E+06    -162.213E+06    -86.1039E+06    -5.24365E+06
            1961     139.771E-03     4.38641E-03     139.703E-03     272.244E-03    -131.497E-03    -140.747E-03    -136.991E-03     268.488E-03    -131.497E-03     78.1980E-03     273.962E-03     78.0797E+06    -59.0689E+06    -128.160E+06    -143.261E+06    -132.678E+06    -138.742E+06    -59.0689E+06    -5.81479E+06
            1962     139.861E-03     5.25845E-03     139.762E-03     278.721E-03    -132.690E-03    -146.031E-03    -141.343E-03     274.033E-03    -132.690E-03     88.6141E-03     281.271E-03     86.4225E+06    -34.4650E+06    -109.685E+06    -128.612E+06    -122.697E+06    -115.601E+06    -34.4650E+06    -6.47130E+06
            1963     139.968E-03     6.12420E-03     139.834E-03     287.167E-03    -134.239E-03    -152.928E-03    -147.454E-03     281.693E-03    -134.239E-03     97.3694E-03     290.757E-03     93.0537E+06    -11.9184E+06    -88.3525E+06    -115.357E+06    -111.990E+06    -91.7190E+06    -11.9184E+06    -7.64180E+06
            1964     140.089E-03     6.98654E-03     139.914E-03     296.912E-03    -136.185E-03    -160.727E-03    -154.686E-03     290.871E-03    -136.185E-03     104.302E-03     301.835E-03     98.6625E+06     6.94507E+06    -68.3136E+06    -104.443E+06    -101.229E+06    -71.5278E+06     6.94507E+06    -9.39855E+06
            1965     140.222E-03     7.84232E-03     140.002E-03     307.295E-03    -138.488E-03    -168.807E-03    -162.516E-03     301.004E-03    -138.488E-03     108.615E-03     314.037E-03     102.183E+06     21.6419E+06    -49.3267E+06    -95.1828E+06    -91.4798E+06    -53.0297E+06     21.6419E+06    -11.8883E+06
            1966     140.365E-03     8.69115E-03     140.095E-03     318.210E-03    -141.106E-03    -177.105E-03    -170.851E-03     311.957E-03    -141.106E-03     110.489E-03     327.492E-03     104.380E+06     34.4230E+06    -31.4055E+06    -85.6602E+06    -81.0746E+06    -35.9911E+06     34.4230E+06    -14.9019E+06
            1967     140.517E-03     9.53257E-03     140.193E-03     328.812E-03    -143.965E-03    -184.848E-03    -178.845E-03     322.810E-03    -143.965E-03     110.310E-03     341.640E-03     105.148E+06     45.4587E+06    -14.3384E+06    -75.7472E+06    -70.0451E+06    -20.0405E+06     45.4587E+06    -17.7999E+06
            1968     140.682E-03     10.3688E-03     140.300E-03     338.913E-03    -146.971E-03    -191.942E-03    -186.298E-03     333.269E-03    -146.971E-03     108.820E-03     356.558E-03     105.235E+06     54.7191E+06     3.13743E+06    -66.1161E+06    -59.6595E+06    -3.31919E+06     54.7191E+06    -20.1149E+06
            1969     140.852E-03     11.1986E-03     140.406E-03     348.157E-03    -150.055E-03    -198.102E-03    -192.944E-03     342.999E-03    -150.055E-03     105.585E-03     372.039E-03     104.223E+06     62.6824E+06     17.3670E+06    -56.4478E+06    -49.7124E+06     10.6316E+06     62.6824E+06    -21.2396E+06
            1970     141.035E-03     12.0219E-03     140.522E-03     355.072E-03    -153.086E-03    -201.987E-03    -197.247E-03     350.332E-03    -153.086E-03     102.313E-03     387.207E-03     103.924E+06     69.2653E+06     38.9972E+06    -45.5994E+06    -40.0495E+06     33.4473E+06     69.2653E+06    -20.4586E+06
            1971     141.225E-03     12.8433E-03     140.640E-03     359.143E-03    -155.961E-03    -203.182E-03    -199.023E-03     354.985E-03    -155.961E-03     96.1887E-03     399.530E-03     107.236E+06     79.7075E+06     66.5758E+06    -33.4309E+06    -30.0310E+06     63.1759E+06     79.7075E+06    -17.7776E+06
            1972     141.413E-03     13.6648E-03     140.751E-03     362.254E-03    -158.587E-03    -203.667E-03    -199.323E-03     357.910E-03    -158.587E-03     98.5117E-03     417.680E-03     121.262E+06     107.654E+06     86.1234E+06    -22.6235E+06    -20.8656E+06     100.966E+06     91.0535E+06    -13.8472E+06
            1973     141.633E-03     14.4850E-03     140.890E-03     362.267E-03    -161.069E-03    -201.198E-03    -197.833E-03     358.902E-03    -161.069E-03     84.1384E-03     420.722E-03     141.158E+06     142.858E+06     108.849E+06    -12.1616E+06    -11.5146E+06     124.802E+06     126.258E+06    -8.53639E+06
            1974     140.843E-03     886.375E-06     140.840E-03     243.464E-03    -121.328E-03    -122.136E-03    -121.807E-03     243.135E-03    -121.328E-03     20.3684E-03     243.524E-03     58.1533E+06    -170.302E+06    -178.407E+06    -231.921E+06    -178.419E+06    -231.535E+06    -170.676E+06     2.20555E+06
            1975     140.873E-03     1.77149E-03     140.862E-03     245.613E-03    -121.806E-03    -123.807E-03    -122.859E-03     244.665E-03    -121.806E-03     36.5511E-03     245.795E-03     50.5579E+06    -155.083E+06    -173.311E+06    -211.067E+06    -173.960E+06    -210.418E+06    -155.083E+06     1.90662E+06
            1976     140.920E-03     2.65506E-03     140.895E-03     249.336E-03    -122.471E-03    -126.865E-03    -124.973E-03     247.444E-03    -122.471E-03     52.6490E-03     249.744E-03     51.9452E+06    -129.260E+06    -166.089E+06    -187.570E+06    -167.939E+06    -185.719E+06    -129.260E+06     1.69301E+06
            1977     140.988E-03     3.53811E-03     140.943E-03     254.673E-03    -123.451E-03    -131.222E-03    -128.194E-03     251.644E-03    -123.451E-03     67.7922E-03     255.421E-03     62.5217E+06    -98.9541E+06    -152.508E+06    -167.181E+06    -159.558E+06    -160.131E+06    -98.9541E+06     1.53209E+06
            1978     141.070E-03     4.41657E-03     141.001E-03     261.626E-03    -124.755E-03    -136.871E-03    -132.642E-03     257.398E-03    -124.755E-03     81.4337E-03     262.880E-03     74.4733E+06    -69.7817E+06    -133.587E+06    -150.707E+06    -149.189E+06    -135.105E+06    -69.7817E+06     282.452E+03
            1979     141.172E-03     5.29098E-03     141.072E-03     270.750E-03    -126.444E-03    -144.306E-03    -138.892E-03     265.336E-03    -126.444E-03     94.0166E-03     272.696E-03     84.5194E+06    -43.4067E+06    -110.327E+06    -137.496E+06    -136.998E+06    -110.826E+06    -43.4067E+06    -2.19284E+06
            1980     141.289E-03     6.16107E-03     141.154E-03     281.574E-03    -128.568E-03    -153.006E-03    -146.587E-03     275.156E-03    -128.568E-03     104.761E-03     284.429E-03     91.9041E+06    -19.8957E+06    -85.1752E+06    -124.496E+06    -123.784E+06    -85.8868E+06    -19.8957E+06    -4.85209E+06
            1981     141.423E-03     7.02329E-03     141.249E-03     293.142E-03    -131.100E-03    -162.042E-03    -154.993E-03     286.093E-03    -131.100E-03     112.358E-03     297.210E-03     97.6258E+06     122.390E+03    -63.3635E+06    -111.947E+06    -110.503E+06    -64.8077E+06     122.390E+03    -8.04465E+06
            1982     141.570E-03     7.87855E-03     141.351E-03     305.689E-03    -133.995E-03    -171.694E-03    -164.361E-03     298.355E-03    -133.995E-03     117.362E-03     311.415E-03     101.205E+06     17.1820E+06    -42.3838E+06    -99.4138E+06    -96.7392E+06    -45.0584E+06     17.1820E+06    -11.9766E+06
            1983     141.730E-03     8.72594E-03     141.461E-03     318.972E-03    -137.231E-03    -181.741E-03    -174.457E-03     311.688E-03    -137.231E-03     119.814E-03     327.019E-03     103.468E+06     30.9735E+06    -22.5625E+06    -88.0384E+06    -83.4162E+06    -27.1847E+06     30.9735E+06    -16.6639E+06
            1984     141.900E-03     9.56406E-03     141.577E-03     331.939E-03    -140.754E-03    -191.185E-03    -184.301E-03     325.055E-03    -140.754E-03     119.134E-03     343.233E-03     104.240E+06     42.5570E+06    -5.75047E+06    -76.8913E+06    -70.2157E+06    -12.4261E+06     42.5570E+06    -20.6837E+06
            1985     142.075E-03     10.3952E-03     141.694E-03     343.953E-03    -144.454E-03    -199.499E-03    -193.206E-03     337.660E-03    -144.454E-03     116.177E-03     359.716E-03     104.145E+06     52.6195E+06     10.3247E+06    -65.8791E+06    -58.1750E+06     2.62056E+06     52.6195E+06    -22.9131E+06
            1986     142.266E-03     11.2186E-03     141.823E-03     353.751E-03    -148.194E-03    -205.557E-03    -199.992E-03     348.186E-03    -148.194E-03     110.915E-03     375.421E-03     102.567E+06     60.6285E+06     22.5065E+06    -55.5129E+06    -46.8941E+06     13.8878E+06     60.6285E+06    -24.3259E+06
            1987     142.453E-03     12.0374E-03     141.944E-03     360.548E-03    -151.791E-03    -208.757E-03    -203.803E-03     355.594E-03    -151.791E-03     105.705E-03     390.172E-03     101.838E+06     67.6133E+06     41.6149E+06    -44.1232E+06    -36.1477E+06     33.6395E+06     67.6133E+06    -24.4542E+06
            1988     142.650E-03     12.8552E-03     142.070E-03     364.335E-03    -155.131E-03    -209.203E-03    -204.945E-03     360.077E-03    -155.131E-03     98.3014E-03     402.139E-03     103.221E+06     77.1119E+06     63.7592E+06    -32.1283E+06    -26.6719E+06     58.3028E+06     77.1119E+06    -21.8382E+06
            1989     142.842E-03     13.6696E-03     142.186E-03     366.525E-03    -158.120E-03    -208.405E-03    -204.079E-03     362.199E-03    -158.120E-03     99.1599E-03     419.346E-03     114.821E+06     103.835E+06     82.6371E+06    -19.9516E+06    -16.7900E+06     94.4249E+06     88.8856E+06    -17.8829E+06
            1990     143.058E-03     14.4887E-03     142.322E-03     365.784E-03    -160.859E-03    -204.925E-03    -201.620E-03     362.479E-03    -160.859E-03     84.0339E-03     422.191E-03     129.840E+06     135.858E+06     97.8858E+06    -8.34411E+06    -7.13398E+06     111.625E+06     120.909E+06    -11.2264E+06
            1991     142.108E-03     892.101E-06     142.105E-03     229.676E-03    -114.343E-03    -115.332E-03    -115.005E-03     229.348E-03    -114.343E-03     19.7479E-03     229.720E-03     26.4630E+06    -213.247E+06    -218.034E+06    -241.316E+06    -219.682E+06    -237.748E+06    -215.167E+06     3.08979E+06
            1992     142.140E-03     1.78366E-03     142.129E-03     232.538E-03    -115.039E-03    -117.499E-03    -116.530E-03     231.569E-03    -115.039E-03     35.9110E-03     232.662E-03     30.3526E+06    -189.227E+06    -201.503E+06    -222.991E+06    -211.378E+06    -212.482E+06    -189.861E+06     4.02073E+06
            1993     142.192E-03     2.67360E-03     142.167E-03     237.299E-03    -115.977E-03    -121.322E-03    -119.358E-03     235.335E-03    -115.977E-03     52.3929E-03     237.590E-03     42.8801E+06    -155.990E+06    -181.850E+06    -203.706E+06    -198.800E+06    -186.756E+06    -155.990E+06     4.38702E+06
            1994     142.265E-03     3.55977E-03     142.220E-03     243.899E-03    -117.275E-03    -126.624E-03    -123.464E-03     240.739E-03    -117.275E-03     67.8621E-03     244.472E-03     58.2717E+06    -119.669E+06    -158.024E+06    -185.250E+06    -183.773E+06    -159.501E+06    -119.669E+06     3.95789E+06
            1995     142.356E-03     4.44339E-03     142.287E-03     252.674E-03    -118.970E-03    -133.704E-03    -129.260E-03     248.230E-03    -118.970E-03     82.2245E-03     253.697E-03      72.141E+06    -84.9271E+06    -129.960E+06    -167.210E+06    -166.769E+06    -130.401E+06    -84.9271E+06     1.13824E+06
            1996     142.468E-03     5.32201E-03     142.369E-03     263.532E-03    -121.110E-03    -142.422E-03    -136.708E-03     257.819E-03    -121.110E-03     95.5643E-03     265.208E-03     82.3742E+06    -54.5638E+06    -103.600E+06    -149.030E+06    -148.609E+06    -104.021E+06    -54.5638E+06    -3.33377E+06
            1997     142.601E-03     6.19227E-03     142.466E-03     275.928E-03    -123.695E-03    -152.233E-03    -145.432E-03     269.127E-03    -123.695E-03     107.033E-03     278.498E-03     89.6613E+06    -28.3195E+06    -77.5955E+06    -131.369E+06    -129.940E+06    -79.0244E+06    -28.3195E+06    -7.87491E+06
            1998     142.750E-03     7.05548E-03     142.576E-03     289.522E-03    -126.702E-03    -162.820E-03    -155.263E-03     281.965E-03    -126.702E-03     115.946E-03     293.291E-03     94.5126E+06    -5.34512E+06    -53.3219E+06    -113.921E+06    -110.796E+06    -56.4466E+06    -5.34512E+06    -12.7533E+06
            1999     142.914E-03     7.91077E-03     142.695E-03     304.168E-03    -130.106E-03    -174.062E-03    -166.065E-03     296.171E-03    -130.106E-03     122.631E-03     309.489E-03     97.8767E+06     13.8894E+06    -31.4699E+06    -98.1345E+06    -93.2824E+06    -36.3220E+06     13.8894E+06    -17.0708E+06
            2000     143.095E-03     8.75587E-03     142.826E-03     319.415E-03    -133.878E-03    -185.538E-03    -177.554E-03     311.431E-03    -133.878E-03     125.931E-03     326.856E-03     100.466E+06     29.6756E+06    -11.6670E+06    -84.7337E+06    -78.1184E+06    -18.2823E+06     29.6756E+06    -20.7851E+06
            2001     143.281E-03     9.59316E-03     142.959E-03     334.715E-03    -137.975E-03    -196.740E-03    -189.217E-03     327.192E-03    -137.975E-03     125.497E-03     345.087E-03     102.348E+06     42.3469E+06     4.12512E+06    -73.5396E+06    -64.9055E+06    -4.50895E+06     42.3469E+06    -24.3269E+06
            2002     143.481E-03     10.4179E-03     143.103E-03     348.230E-03    -142.270E-03    -205.960E-03    -199.083E-03     341.353E-03    -142.270E-03     122.601E-03     362.586E-03     104.289E+06     53.6992E+06     20.6225E+06    -62.9458E+06    -52.4335E+06     10.1102E+06     53.6992E+06    -27.6573E+06
            2003     143.679E-03     11.2365E-03     143.239E-03     358.378E-03    -146.553E-03    -211.824E-03    -205.779E-03     352.332E-03    -146.553E-03     116.669E-03     378.120E-03     103.192E+06     61.9025E+06     31.0170E+06    -53.0896E+06    -40.1481E+06     18.0755E+06     61.9025E+06    -30.0666E+06
            2004     143.881E-03     12.0520E-03     143.376E-03     365.668E-03    -150.632E-03    -215.037E-03    -209.825E-03     360.456E-03    -150.632E-03     109.439E-03     392.845E-03     99.4426E+06     68.3187E+06     44.1376E+06    -40.7076E+06    -28.5430E+06     31.9730E+06     68.3187E+06    -29.2177E+06
            2005     144.081E-03     12.8623E-03     143.506E-03     369.220E-03    -154.399E-03    -214.821E-03    -210.567E-03     364.966E-03    -154.399E-03     99.0763E-03     404.431E-03     97.8432E+06     77.9061E+06     61.9301E+06    -26.9144E+06    -18.5341E+06     53.5498E+06     77.9061E+06    -25.5985E+06
            2006     144.275E-03     13.6772E-03     143.625E-03     370.504E-03    -157.736E-03    -212.768E-03    -208.632E-03     366.368E-03    -157.736E-03     97.6974E-03     420.676E-03     106.895E+06     98.3412E+06     81.3051E+06    -15.8807E+06    -11.3617E+06     85.8953E+06     89.2319E+06    -19.7368E+06
            2007     144.491E-03     14.4896E-03     143.763E-03     368.554E-03    -160.708E-03    -207.846E-03    -204.726E-03     365.434E-03    -160.708E-03     82.0768E-03     422.927E-03     120.077E+06     125.670E+06     87.4529E+06    -7.46583E+06    -6.27662E+06     95.3730E+06     116.560E+06    -10.2402E+06
            2008     143.357E-03     896.526E-06     143.354E-03     220.314E-03    -109.568E-03    -110.746E-03    -110.199E-03     220.017E-03    -109.819E-03     18.3906E-03     220.344E-03     47.6682E+06    -236.377E+06    -279.894E+06    -285.941E+06    -284.614E+06    -237.645E+06    -279.954E+06    -3.41037E+06
            2009     143.392E-03     1.79222E-03     143.381E-03     223.387E-03    -110.427E-03    -112.961E-03    -112.064E-03     222.491E-03    -110.427E-03     33.7932E-03     223.475E-03     56.1268E+06    -208.506E+06    -249.907E+06    -269.451E+06    -268.215E+06    -211.217E+06    -248.431E+06    -5.38186E+06
            2010     143.450E-03     2.68541E-03     143.425E-03     228.782E-03    -111.528E-03    -117.255E-03    -115.433E-03     226.961E-03    -111.528E-03     49.5799E-03     229.006E-03     62.1757E+06    -176.109E+06    -209.358E+06    -246.399E+06    -243.984E+06    -185.532E+06    -202.349E+06    -7.69750E+06
            2011     143.529E-03     3.57639E-03     143.485E-03     236.521E-03    -113.092E-03    -123.430E-03    -120.480E-03     233.572E-03    -113.092E-03     64.5788E-03     237.011E-03     69.1031E+06    -138.741E+06    -166.759E+06    -217.264E+06    -213.592E+06    -155.746E+06    -153.427E+06    -10.7560E+06
            2012     143.631E-03     4.46163E-03     143.562E-03     246.557E-03    -115.127E-03    -131.430E-03    -127.246E-03     242.373E-03    -115.127E-03     78.9070E-03     247.502E-03     76.2116E+06    -102.070E+06    -125.792E+06    -186.241E+06    -181.225E+06    -124.676E+06    -108.202E+06    -14.0798E+06
            2013     143.757E-03     5.33957E-03     143.657E-03     258.463E-03    -117.625E-03    -140.837E-03    -135.404E-03     253.029E-03    -117.625E-03     92.4273E-03     260.096E-03     80.8305E+06    -69.3781E+06    -91.8432E+06    -157.658E+06    -151.672E+06    -97.8286E+06    -69.3781E+06    -16.6028E+06
            2014     143.903E-03     6.21253E-03     143.769E-03     271.640E-03    -120.538E-03    -151.102E-03    -144.584E-03     265.122E-03    -120.538E-03     104.126E-03     274.199E-03     86.0145E+06    -37.1257E+06    -65.1900E+06    -132.901E+06    -126.275E+06    -71.8157E+06    -37.1257E+06    -18.9945E+06
            2015     144.070E-03     7.07773E-03     143.896E-03     286.377E-03    -123.857E-03    -162.520E-03    -155.197E-03     279.054E-03    -123.857E-03     113.693E-03     290.135E-03     91.2728E+06    -10.7640E+06    -41.6381E+06    -113.143E+06    -105.708E+06    -49.0727E+06    -10.7640E+06    -21.4784E+06
            2016     144.255E-03     7.93202E-03     144.036E-03     302.375E-03    -127.593E-03    -174.782E-03    -166.992E-03     294.585E-03    -127.593E-03     120.890E-03     307.656E-03     96.8719E+06     10.8700E+06    -19.5637E+06    -97.3168E+06    -88.6338E+06    -28.2468E+06     10.8700E+06    -24.3695E+06
            2017     144.453E-03     8.77827E-03     144.186E-03     318.913E-03    -131.716E-03    -187.197E-03    -179.280E-03     310.997E-03    -131.716E-03     125.559E-03     326.132E-03     101.689E+06     29.9013E+06     511.641E+03    -83.0150E+06    -72.4700E+06    -10.0333E+06     29.9013E+06    -27.6361E+06
            2018     144.668E-03     9.61028E-03     144.348E-03     335.034E-03    -136.136E-03    -198.898E-03    -191.173E-03     327.309E-03    -136.136E-03     127.473E-03     344.826E-03     104.591E+06     45.7106E+06     17.1255E+06    -70.0210E+06    -56.9023E+06     4.00679E+06     45.7106E+06    -30.9099E+06
            2019     144.883E-03     10.4359E-03     144.506E-03     349.172E-03    -140.708E-03    -208.464E-03    -201.289E-03     341.997E-03    -140.708E-03     125.606E-03     362.448E-03     105.923E+06     58.4600E+06     32.5976E+06    -57.9302E+06    -42.9932E+06     17.6607E+06     58.4600E+06    -33.4035E+06
            2020     145.101E-03     11.2535E-03     144.664E-03     360.892E-03    -145.282E-03    -215.611E-03    -209.270E-03     354.552E-03    -145.282E-03     120.131E-03     378.868E-03     104.099E+06     66.4579E+06     38.3113E+06    -48.6727E+06    -32.0057E+06     21.6443E+06     66.4579E+06    -34.0288E+06
            2021     145.312E-03     12.0632E-03     144.810E-03     369.314E-03    -149.688E-03    -219.625E-03    -214.208E-03     363.896E-03    -149.688E-03     112.331E-03     394.141E-03     100.469E+06     70.8502E+06     44.6290E+06    -39.9322E+06    -24.7301E+06     29.4269E+06     70.8502E+06    -32.1250E+06
            2022     145.522E-03     12.8726E-03     144.952E-03     373.479E-03    -153.790E-03    -219.689E-03    -215.399E-03     369.190E-03    -153.790E-03     100.198E-03     406.161E-03     98.9367E+06     78.6852E+06     57.8706E+06    -28.9767E+06    -18.8725E+06     47.7663E+06     78.6852E+06    -27.6550E+06
            2023     145.712E-03     13.6779E-03     145.069E-03     374.104E-03    -157.418E-03    -216.686E-03    -212.717E-03     370.135E-03    -157.418E-03     96.4090E-03     421.724E-03     99.7648E+06     88.2874E+06     74.3558E+06    -17.4248E+06    -12.5297E+06     71.3531E+06     86.3951E+06    -19.0887E+06
            2024     145.929E-03     14.4911E-03     145.208E-03     370.322E-03    -160.595E-03    -209.727E-03    -206.780E-03     367.375E-03    -160.595E-03     80.1832E-03     422.782E-03     113.766E+06     117.305E+06     75.9091E+06    -6.99119E+06    -5.97208E+06     76.7824E+06     115.412E+06    -8.11551E+06
            2025     144.598E-03     897.881E-06     144.596E-03     217.559E-03    -108.316E-03    -109.242E-03    -108.762E-03     217.329E-03    -108.568E-03     16.1148E-03     217.583E-03     114.343E+06    -216.455E+06    -325.991E+06    -334.973E+06    -332.221E+06    -218.069E+06    -327.129E+06    -12.2576E+06
            2026     144.636E-03     1.79429E-03     144.625E-03     220.707E-03    -109.140E-03    -111.567E-03    -110.866E-03     220.006E-03    -109.140E-03     29.5500E-03     220.784E-03     120.719E+06    -189.594E+06    -295.812E+06    -320.188E+06    -315.581E+06    -194.200E+06    -295.812E+06    -23.2588E+06
            2027     144.699E-03     2.68950E-03     144.674E-03     226.135E-03    -110.326E-03    -115.809E-03    -114.365E-03     224.691E-03    -110.326E-03     43.7344E-03     226.347E-03     120.728E+06    -160.803E+06    -249.084E+06    -296.821E+06    -288.010E+06    -169.614E+06    -249.084E+06    -32.8703E+06
            2028     144.787E-03     3.57960E-03     144.743E-03     234.175E-03    -112.011E-03    -122.164E-03    -119.757E-03     231.768E-03    -112.011E-03     57.9499E-03     234.663E-03     123.918E+06    -127.096E+06    -197.852E+06    -268.328E+06    -254.440E+06    -140.984E+06    -197.852E+06    -41.7063E+06
            2029     144.900E-03     4.46507E-03     144.831E-03     244.554E-03    -114.214E-03    -130.340E-03    -126.858E-03     241.072E-03    -114.214E-03     71.6090E-03     245.514E-03     125.246E+06    -96.1040E+06    -149.804E+06    -236.958E+06    -218.458E+06    -115.205E+06    -149.203E+06    -47.2359E+06
            2030     145.038E-03     5.34584E-03     144.940E-03     256.577E-03    -116.897E-03    -139.680E-03    -135.149E-03     252.046E-03    -116.897E-03     83.9088E-03     258.241E-03     122.544E+06    -67.4984E+06    -106.279E+06    -203.011E+06    -181.168E+06    -92.4164E+06    -103.204E+06    -48.9811E+06
            2031     145.200E-03     6.21748E-03     145.067E-03     270.043E-03    -120.000E-03    -150.043E-03    -144.623E-03     264.623E-03    -120.000E-03     94.5290E-03     272.653E-03     117.223E+06    -39.0965E+06    -69.1964E+06    -168.125E+06    -144.860E+06    -70.2450E+06    -61.3127E+06    -47.3888E+06
            2032     145.384E-03     7.08056E-03     145.211E-03     284.912E-03    -123.498E-03    -161.415E-03    -155.264E-03     278.762E-03    -123.498E-03     103.829E-03     288.743E-03     111.307E+06    -14.4242E+06    -35.3850E+06    -134.405E+06    -111.388E+06    -48.5605E+06    -24.2660E+06    -43.5954E+06
            2033     145.589E-03     7.93612E-03     145.372E-03     300.785E-03    -127.363E-03    -173.422E-03    -166.765E-03     294.128E-03    -127.363E-03     111.411E-03     306.101E-03     106.545E+06     9.20973E+06    -6.61545E+06    -104.067E+06    -82.7430E+06    -26.4183E+06     7.68832E+06    -39.6242E+06
            2034     145.810E-03     8.77863E-03     145.546E-03     316.776E-03    -131.526E-03    -185.250E-03    -178.264E-03     309.790E-03    -131.526E-03     117.507E-03     323.866E-03     104.909E+06     33.1976E+06     13.3595E+06    -80.0902E+06    -61.0264E+06    -5.70425E+06     33.1976E+06    -36.9579E+06
            2035     146.044E-03     9.61664E-03     145.727E-03     331.913E-03    -135.882E-03    -196.032E-03    -188.984E-03     324.865E-03    -135.882E-03     121.046E-03     341.229E-03     105.843E+06     51.8216E+06     26.5461E+06    -64.3080E+06    -46.7723E+06     9.01040E+06     51.8216E+06    -35.5748E+06
            2036     146.284E-03     10.4426E-03     145.910E-03     346.004E-03    -140.333E-03    -205.670E-03    -198.940E-03     339.274E-03    -140.333E-03     121.010E-03     358.280E-03     108.014E+06     64.4466E+06     36.7046E+06    -54.6738E+06    -39.2087E+06     21.2395E+06     64.4466E+06    -34.0448E+06
            2037     146.518E-03     11.2602E-03     146.085E-03     358.737E-03    -144.810E-03    -213.926E-03    -207.743E-03     352.553E-03    -144.810E-03     118.284E-03     375.006E-03     109.467E+06     71.6010E+06     40.2556E+06    -50.0045E+06    -35.0795E+06     25.3306E+06     71.6010E+06    -33.1269E+06
            2038     146.749E-03     12.0720E-03     146.252E-03     368.786E-03    -149.199E-03    -219.587E-03    -214.174E-03     363.373E-03    -149.199E-03     112.235E-03     391.028E-03     109.243E+06     76.4804E+06     47.0717E+06    -44.2939E+06    -28.3874E+06     31.1652E+06     76.4804E+06    -34.3217E+06
            2039     146.962E-03     12.8775E-03     146.397E-03     374.583E-03    -153.371E-03    -221.212E-03    -216.874E-03     370.245E-03    -153.371E-03     101.016E-03     404.336E-03     103.729E+06     82.4394E+06     50.7850E+06    -32.4626E+06    -18.7718E+06     37.0941E+06     82.4394E+06    -29.9989E+06
            2040     147.163E-03     13.6847E-03     146.526E-03     375.832E-03    -157.110E-03    -218.722E-03    -214.877E-03     371.987E-03    -157.110E-03     95.2628E-03     420.464E-03     93.4255E+06     84.5469E+06     56.1236E+06    -18.3459E+06    -11.8251E+06     49.6027E+06     84.5469E+06    -17.7594E+06
            2041     147.361E-03     14.4936E-03     146.646E-03     372.256E-03    -160.429E-03    -211.827E-03    -209.070E-03     369.499E-03    -160.429E-03     77.9847E-03     422.546E-03     109.932E+06     114.972E+06     61.3563E+06    -7.74331E+06    -6.87789E+06     60.4909E+06     114.972E+06    -6.52631E+06
            2042     145.841E-03     894.927E-06     145.838E-03     224.114E-03    -111.633E-03    -112.480E-03    -112.096E-03     223.977E-03    -111.881E-03     12.1545E-03     224.161E-03     119.447E+06    -175.474E+06    -289.489E+06    -299.521E+06    -294.987E+06    -178.871E+06    -290.627E+06    -18.5942E+06
            2043     145.882E-03     1.78947E-03     145.871E-03     227.100E-03    -112.517E-03    -114.583E-03    -114.166E-03     226.684E-03    -112.517E-03     22.7811E-03     227.226E-03     133.811E+06    -146.959E+06    -262.456E+06    -292.687E+06    -283.110E+06    -156.535E+06    -262.456E+06    -34.5746E+06
            2044     145.950E-03     2.68026E-03     145.925E-03     232.098E-03    -113.719E-03    -118.378E-03    -117.499E-03     231.218E-03    -113.719E-03     33.9780E-03     232.410E-03     145.667E+06    -116.873E+06    -226.245E+06    -281.741E+06    -263.656E+06    -134.958E+06    -226.245E+06    -50.3810E+06
            2045     146.045E-03     3.56967E-03     146.001E-03     239.408E-03    -115.396E-03    -124.012E-03    -122.493E-03     237.889E-03    -115.396E-03     45.5900E-03     240.066E-03     157.409E+06    -85.7775E+06    -186.568E+06    -266.578E+06    -240.510E+06    -111.845E+06    -186.568E+06    -62.5913E+06
            2046     146.170E-03     4.45310E-03     146.102E-03     248.979E-03    -117.589E-03    -131.390E-03    -129.196E-03     246.786E-03    -117.589E-03     56.3102E-03     250.171E-03     164.480E+06    -59.5666E+06    -147.060E+06    -249.085E+06    -215.393E+06    -93.2586E+06    -147.060E+06    -71.6923E+06
            2047     146.319E-03     5.32840E-03     146.222E-03     260.101E-03    -120.252E-03    -139.849E-03    -137.025E-03     257.277E-03    -120.252E-03     65.7670E-03     262.030E-03     167.703E+06    -37.9786E+06    -111.684E+06    -229.637E+06    -188.858E+06    -78.7573E+06    -111.684E+06    -77.7808E+06
            2048     146.496E-03     6.19834E-03     146.365E-03     272.249E-03    -123.302E-03    -148.947E-03    -145.501E-03     268.803E-03    -123.302E-03     74.6790E-03     275.106E-03     165.484E+06    -20.1292E+06    -78.2142E+06    -206.516E+06    -161.006E+06    -65.6389E+06    -78.2142E+06    -79.7982E+06
            2049     146.695E-03     7.06061E-03     146.525E-03     285.522E-03    -126.662E-03    -158.860E-03    -154.762E-03     281.425E-03    -126.662E-03     83.8934E-03     289.506E-03     159.379E+06    -3.73487E+06    -45.8058E+06    -179.073E+06    -132.277E+06    -50.5317E+06    -45.8058E+06    -77.4708E+06
            2050     146.919E-03     7.91269E-03     146.706E-03     299.591E-03    -130.300E-03    -169.291E-03    -164.628E-03     294.928E-03    -130.300E-03     92.1964E-03     304.917E-03     149.596E+06     12.7600E+06    -15.5491E+06    -148.336E+06    -104.169E+06    -34.0705E+06    -12.8856E+06    -71.0377E+06
            2051     147.159E-03     8.76066E-03     146.898E-03     313.203E-03    -134.135E-03    -179.069E-03    -174.038E-03     308.172E-03    -134.135E-03     98.2180E-03     320.099E-03     138.492E+06     31.0438E+06     11.9048E+06    -115.692E+06    -78.3579E+06    -14.6727E+06     20.2874E+06    -61.3889E+06
            2052     147.413E-03     9.59602E-03     147.100E-03     325.894E-03    -138.040E-03    -187.854E-03    -182.567E-03     320.608E-03    -138.040E-03     103.173E-03     334.731E-03     125.693E+06     50.4688E+06     26.4437E+06    -84.9095E+06    -55.4134E+06    -1.53017E+06     48.9466E+06    -49.1149E+06
            2053     147.669E-03     10.4280E-03     147.301E-03     338.373E-03    -141.929E-03    -196.444E-03    -191.018E-03     332.947E-03    -141.929E-03     106.949E-03     349.725E-03     113.981E+06     70.8162E+06     33.4493E+06    -56.8058E+06    -36.1022E+06     12.7457E+06     70.8162E+06     -36.726E+06
            2054     147.928E-03     11.2527E-03     147.500E-03     350.473E-03    -145.798E-03    -204.675E-03    -199.345E-03     345.143E-03    -145.798E-03     108.106E-03     365.119E-03     108.064E+06     85.3453E+06     41.4641E+06    -36.7650E+06    -22.3775E+06     27.0765E+06     85.3453E+06    -29.5155E+06
            2055     148.173E-03     12.0697E-03     147.681E-03     361.722E-03    -149.656E-03    -212.066E-03    -207.084E-03     356.740E-03    -149.656E-03     106.369E-03     381.119E-03     108.387E+06     92.9736E+06     49.1581E+06    -29.1334E+06    -16.7510E+06     36.7757E+06     92.9736E+06    -27.5854E+06
            2056     148.407E-03     12.8813E-03     147.847E-03     370.243E-03    -153.466E-03    -216.777E-03    -212.728E-03     366.194E-03    -153.466E-03     96.6876E-03     396.207E-03     106.686E+06     91.7312E+06     38.2534E+06    -29.4618E+06    -17.4921E+06     26.2837E+06     91.7312E+06    -24.7726E+06
            2057     148.604E-03     13.6886E-03     147.972E-03     374.112E-03    -157.050E-03    -217.062E-03    -213.732E-03     370.782E-03    -157.050E-03     88.3394E-03     414.272E-03     97.6731E+06     88.8121E+06     35.8604E+06    -23.1341E+06    -15.9547E+06     28.6810E+06     88.8121E+06    -16.3651E+06
            2058     148.809E-03     14.4977E-03     148.101E-03     372.155E-03    -160.351E-03    -211.805E-03    -209.503E-03     369.854E-03    -160.351E-03     71.1925E-03     419.067E-03     113.991E+06     118.905E+06     48.2251E+06    -10.2174E+06    -9.18747E+06     47.1952E+06     118.905E+06    -6.77265E+06
            2059     147.099E-03     887.979E-06     147.096E-03     243.032E-03    -121.068E-03    -121.963E-03    -121.673E-03     242.990E-03    -121.316E-03     5.96707E-03     243.122E-03     76.2818E+06    -124.325E+06    -193.839E+06    -205.394E+06    -199.305E+06    -130.414E+06    -193.839E+06    -19.7229E+06
            2060     147.143E-03     1.77345E-03     147.132E-03     245.801E-03    -122.126E-03    -123.676E-03    -123.541E-03     245.667E-03    -122.126E-03     10.8559E-03     246.058E-03     99.5330E+06    -91.5812E+06    -169.239E+06    -202.762E+06    -187.199E+06    -107.144E+06    -169.239E+06    -36.9473E+06
            2061     147.214E-03     2.65871E-03     147.190E-03     250.424E-03    -123.440E-03    -126.984E-03    -126.700E-03     250.140E-03    -123.440E-03     15.8037E-03     250.999E-03     117.769E+06    -64.5882E+06    -138.167E+06    -199.373E+06    -173.011E+06    -90.9502E+06    -138.167E+06    -52.5384E+06
            2062     147.317E-03     3.53785E-03     147.274E-03     256.348E-03    -125.181E-03    -131.167E-03    -130.696E-03     255.877E-03    -125.181E-03     20.7886E-03     257.422E-03     133.937E+06    -40.1466E+06    -108.146E+06    -193.484E+06    -157.500E+06    -76.1299E+06    -108.146E+06    -64.1035E+06
            2063     147.448E-03     4.41335E-03     147.382E-03     263.290E-03    -127.254E-03    -136.036E-03    -135.338E-03     262.592E-03    -127.254E-03     26.3863E-03     265.046E-03     145.871E+06    -19.3549E+06    -80.5099E+06    -185.111E+06    -141.989E+06    -62.4768E+06    -80.5099E+06    -72.1273E+06
            2064     147.611E-03     5.28427E-03     147.516E-03     271.493E-03    -129.612E-03    -141.881E-03    -140.930E-03     270.542E-03    -129.612E-03     32.2582E-03     274.084E-03     155.842E+06    -3.33514E+06    -58.4560E+06    -178.546E+06    -129.049E+06    -52.8322E+06    -58.4560E+06    -78.5274E+06
            2065     147.796E-03     6.14745E-03     147.668E-03     280.377E-03    -132.216E-03    -148.161E-03    -146.955E-03     279.171E-03    -132.216E-03     38.3631E-03     283.938E-03     164.252E+06     8.89522E+06    -41.4479E+06    -173.911E+06    -118.428E+06    -46.5882E+06    -41.4479E+06    -83.6594E+06
            2066     148.009E-03     7.00522E-03     147.843E-03     289.781E-03    -135.005E-03    -154.776E-03    -153.223E-03     288.228E-03    -135.005E-03     45.8518E-03     294.366E-03     167.739E+06     16.5750E+06    -25.5234E+06    -167.372E+06    -109.561E+06    -41.2359E+06    -25.5234E+06    -84.9132E+06
            2067     148.245E-03     7.85932E-03     148.037E-03     299.356E-03    -137.913E-03    -161.443E-03    -159.514E-03     297.427E-03    -137.913E-03     53.9133E-03     305.103E-03     168.194E+06     23.7181E+06    -6.56837E+06    -156.899E+06    -100.086E+06    -33.0946E+06    -6.56837E+06    -83.4869E+06
            2068     148.502E-03     8.70223E-03     148.247E-03     308.181E-03    -140.829E-03    -167.352E-03    -165.079E-03     305.908E-03    -140.829E-03     61.7968E-03     315.305E-03     164.688E+06     29.4856E+06     15.4615E+06    -141.407E+06    -88.1134E+06    -23.8076E+06     15.4615E+06    -78.7837E+06
            2069     148.765E-03     9.54681E-03     148.459E-03     316.901E-03    -143.657E-03    -173.244E-03    -170.489E-03     314.145E-03    -143.657E-03     70.6837E-03     325.685E-03     154.758E+06     39.5156E+06     26.6820E+06    -120.711E+06    -73.1731E+06    -18.6793E+06     37.3392E+06    -69.3806E+06
            2070     149.041E-03     10.3848E-03     148.679E-03     326.249E-03    -146.398E-03    -179.851E-03    -176.590E-03     322.988E-03    -146.398E-03     79.3338E-03     337.103E-03     142.112E+06     59.9557E+06     30.1570E+06    -93.3751E+06    -54.8995E+06    -8.31860E+06     59.9557E+06    -57.1531E+06
            2071     149.314E-03     11.2186E-03     148.892E-03     336.221E-03    -149.129E-03    -187.091E-03    -183.540E-03     332.669E-03    -149.129E-03     85.0279E-03     349.751E-03     130.563E+06     84.4446E+06     34.1129E+06    -62.0978E+06    -37.4451E+06     9.46019E+06     84.4446E+06    -41.6175E+06
            2072     149.581E-03     12.0480E-03     149.095E-03     346.835E-03    -151.912E-03    -194.923E-03    -191.259E-03     343.172E-03    -151.912E-03     88.2671E-03     364.082E-03     123.261E+06     105.760E+06     38.2948E+06    -35.9060E+06    -25.2469E+06     27.6358E+06     105.760E+06    -24.7781E+06
            2073     149.832E-03     12.8696E-03     149.278E-03     357.833E-03    -154.773E-03    -203.060E-03    -199.805E-03     354.578E-03    -154.773E-03     84.7657E-03     380.108E-03     116.575E+06     109.101E+06     28.4802E+06    -23.0462E+06    -16.9933E+06     22.4273E+06     109.101E+06    -15.7195E+06
            2074     150.049E-03     13.6822E-03     149.424E-03     366.247E-03    -157.691E-03    -208.556E-03    -205.866E-03     363.557E-03    -157.691E-03     78.3673E-03     399.923E-03     106.941E+06     102.000E+06     21.3332E+06    -16.7676E+06    -11.4630E+06     16.0285E+06     102.000E+06    -12.1893E+06
            2075     150.243E-03     14.4939E-03     149.543E-03     366.358E-03    -160.577E-03    -205.781E-03    -204.011E-03     364.588E-03    -160.577E-03     61.8403E-03     407.224E-03     120.279E+06     126.561E+06     33.6625E+06    -7.10737E+06    -5.47819E+06     32.0333E+06     126.561E+06    -6.15720E+06
            2076     148.390E-03     872.068E-06     148.388E-03     279.857E-03    -139.439E-03    -140.418E-03    -140.217E-03     279.816E-03    -139.599E-03    -3.86654E-03     280.368E-03     45.6176E+06    -60.3733E+06    -90.9504E+06    -111.320E+06    -94.4844E+06    -77.2087E+06    -90.9504E+06    -18.9856E+06
            2077     148.436E-03     1.74431E-03     148.425E-03     283.413E-03    -140.919E-03    -142.495E-03    -142.339E-03     283.258E-03    -140.919E-03    -9.95433E-03     283.946E-03     69.1520E+06    -34.8016E+06    -71.1784E+06    -112.391E+06    -87.7208E+06    -59.4719E+06    -71.1784E+06    -34.2498E+06
            2078     148.513E-03     2.61085E-03     148.490E-03     287.007E-03    -142.511E-03    -144.497E-03    -144.131E-03     286.647E-03    -142.516E-03    -16.1229E-03     287.905E-03     88.7093E+06    -14.6464E+06    -45.5864E+06    -112.884E+06    -78.5708E+06    -48.9597E+06    -45.5864E+06    -45.3854E+06
            2079     148.619E-03     3.47554E-03     148.578E-03     290.137E-03    -143.751E-03    -146.386E-03    -145.385E-03     289.558E-03    -144.173E-03    -20.6712E-03     291.661E-03     105.688E+06     3.01248E+06    -23.8321E+06    -112.465E+06    -69.3785E+06    -41.5330E+06    -22.3732E+06    -54.1015E+06
            2080     148.754E-03     4.33666E-03     148.691E-03     292.942E-03    -144.386E-03    -148.556E-03    -146.346E-03     292.165E-03    -145.820E-03    -23.0167E-03     295.245E-03     117.166E+06     17.0648E+06    -7.13523E+06    -109.565E+06    -61.4843E+06    -34.5873E+06    -3.56371E+06    -58.8562E+06
            2081     148.920E-03     5.19465E-03     148.829E-03     295.696E-03    -144.624E-03    -151.072E-03    -147.316E-03     294.785E-03    -147.470E-03    -23.4558E-03     298.958E-03     125.465E+06     31.0062E+06     6.41605E+06    -104.710E+06    -54.6142E+06    -26.5585E+06     13.8846E+06     -61.628E+06
            2082     149.113E-03     6.05036E-03     148.991E-03     299.435E-03    -145.477E-03    -153.958E-03    -149.241E-03     298.421E-03    -149.180E-03    -22.2277E-03     303.813E-03     132.233E+06     42.1519E+06     13.6873E+06    -101.895E+06    -49.9573E+06    -23.7763E+06     27.6776E+06    -63.1024E+06
            2083     149.329E-03     6.90227E-03     149.170E-03     302.781E-03    -145.944E-03    -156.838E-03    -150.766E-03     301.698E-03    -150.932E-03    -19.3392E-03     308.422E-03     135.898E+06     47.5620E+06     18.2806E+06    -100.074E+06    -47.2637E+06    -24.6605E+06     37.6927E+06    -62.6769E+06
            2084     149.573E-03     7.74841E-03     149.372E-03     303.910E-03    -144.726E-03    -159.183E-03    -150.356E-03     302.869E-03    -152.513E-03    -12.7344E-03     310.922E-03     139.106E+06     53.6040E+06     24.5509E+06    -96.6103E+06    -46.7513E+06    -19.1457E+06     47.4416E+06    -61.8230E+06
            2085     149.831E-03     8.60132E-03     149.584E-03     304.730E-03    -143.699E-03    -161.030E-03    -149.940E-03     303.719E-03    -153.779E-03    -3.42790E-03     313.324E-03     142.132E+06     57.5318E+06     27.2953E+06    -95.1494E+06    -48.7009E+06    -15.8856E+06     54.2642E+06    -60.6286E+06
            2086     150.105E-03     9.44912E-03     149.807E-03     306.760E-03    -143.640E-03    -163.120E-03    -150.948E-03     305.744E-03    -154.796E-03     7.55067E-03     317.119E-03     144.865E+06     58.8959E+06     25.0286E+06    -96.8226E+06    -53.4272E+06    -17.7126E+06     58.2417E+06    -58.5046E+06
            2087     150.386E-03     10.2984E-03     150.033E-03     309.630E-03    -143.952E-03    -165.678E-03    -152.880E-03     308.544E-03    -155.664E-03     20.6091E-03     321.910E-03     148.517E+06     66.1264E+06     23.7415E+06    -96.2029E+06    -57.5592E+06    -14.9021E+06     66.1264E+06    -55.9747E+06
            2088     150.674E-03     11.1461E-03     150.262E-03     314.117E-03    -145.347E-03    -168.770E-03    -156.406E-03     312.863E-03    -156.457E-03     35.1208E-03     328.795E-03     148.605E+06     80.0278E+06     20.0183E+06    -87.4538E+06    -55.7808E+06    -11.6547E+06     80.0278E+06    -48.0650E+06
            2089     150.955E-03     11.9892E-03     150.478E-03     321.337E-03    -148.979E-03    -172.358E-03    -162.487E-03     319.757E-03    -157.269E-03     50.0471E-03     338.937E-03     142.693E+06     98.9236E+06     21.3994E+06    -65.2224E+06    -44.4305E+06     607.435E+03     98.9236E+06    -34.8940E+06
            2090     151.227E-03     12.8302E-03     150.682E-03     331.401E-03    -154.461E-03    -176.940E-03    -171.172E-03     329.401E-03    -158.229E-03     62.1168E-03     352.716E-03     133.224E+06     113.323E+06     24.2654E+06    -38.2483E+06    -26.1751E+06     12.1922E+06     113.323E+06    -23.7201E+06
            2091     151.471E-03     13.6636E-03     150.854E-03     344.178E-03    -158.891E-03    -185.287E-03    -182.358E-03     341.876E-03    -159.517E-03     69.4731E-03     372.877E-03     125.458E+06     116.252E+06     11.7617E+06    -20.6057E+06    -11.5108E+06     2.66675E+06     116.252E+06    -12.9155E+06
            2092     151.674E-03     14.4867E-03     150.981E-03     352.195E-03    -161.192E-03    -191.002E-03    -189.411E-03     350.603E-03    -161.192E-03     56.4328E-03     386.823E-03     128.213E+06     133.439E+06     21.6956E+06    -5.90312E+06    -1.35012E+06     17.1426E+06     133.439E+06    -2.56518E+06
            2093     149.745E-03     848.483E-06     149.742E-03     346.188E-03    -172.255E-03    -173.933E-03    -172.722E-03     345.805E-03    -173.083E-03    -24.1194E-03     349.138E-03     62.9352E+06     27.5317E+06     17.5734E+06    -39.1126E+06     16.5262E+06    -30.4931E+06     19.9594E+06    -14.6286E+06
            2094     149.795E-03     1.68962E-03     149.785E-03     347.132E-03    -172.307E-03    -174.825E-03    -172.211E-03     346.093E-03    -173.882E-03    -42.7879E-03     349.937E-03     71.4904E+06     38.0052E+06     24.0276E+06    -39.0864E+06     14.5962E+06    -22.3651E+06     30.7151E+06    -21.2472E+06
            2095     149.874E-03     2.53023E-03     149.853E-03     347.814E-03    -172.606E-03    -175.207E-03    -171.105E-03     345.821E-03    -174.717E-03    -60.8293E-03     350.735E-03     83.2968E+06     51.3292E+06     31.5922E+06    -39.5013E+06     14.1673E+06    -17.3835E+06     46.6363E+06    -26.7520E+06
            2096     149.977E-03     3.37006E-03     149.939E-03     347.411E-03    -171.855E-03    -175.556E-03    -168.652E-03     344.208E-03    -175.556E-03    -77.2271E-03     350.717E-03     95.3344E+06     64.0786E+06     36.1505E+06    -40.2931E+06     13.3888E+06    -15.4256E+06     61.9729E+06    -29.9781E+06
            2097     150.112E-03     4.20928E-03     150.053E-03     345.444E-03    -169.202E-03    -176.242E-03    -164.671E-03     340.913E-03    -176.242E-03    -91.0134E-03     349.342E-03     105.230E+06     74.9780E+06     38.5245E+06    -40.0884E+06     11.9033E+06    -13.4672E+06     74.9780E+06    -32.2385E+06
            2098     150.270E-03     5.04885E-03     150.185E-03     342.329E-03    -165.601E-03    -176.728E-03    -159.824E-03     336.552E-03    -176.728E-03    -101.181E-03     347.124E-03     112.364E+06     86.2383E+06     37.9009E+06    -37.4696E+06     9.46680E+06    -9.03547E+06     86.2383E+06    -32.8522E+06
            2099     150.459E-03     5.88879E-03     150.344E-03     338.385E-03    -161.343E-03    -177.042E-03    -154.641E-03     331.683E-03    -177.042E-03    -107.138E-03     344.404E-03     119.666E+06     96.2406E+06     34.0030E+06    -36.6946E+06     5.85531E+06    -8.54686E+06     96.2406E+06    -31.3131E+06
            2100     150.676E-03     6.72546E-03     150.526E-03     332.687E-03    -155.621E-03    -177.066E-03    -148.328E-03     325.393E-03    -177.066E-03    -109.342E-03     340.383E-03     125.736E+06     102.594E+06     29.3385E+06    -37.3930E+06     1.68813E+06    -9.74256E+06     102.594E+06    -30.3906E+06
            2101     150.904E-03     7.57123E-03     150.714E-03     324.886E-03    -148.252E-03    -176.634E-03    -140.699E-03     317.333E-03    -176.634E-03    -107.329E-03     334.554E-03     129.110E+06     107.803E+06     27.3074E+06    -35.7336E+06    -1.89109E+06    -6.53512E+06     107.803E+06    -29.2962E+06
            2102     151.157E-03     8.41741E-03     150.922E-03     316.197E-03    -140.472E-03    -175.725E-03    -133.156E-03     308.881E-03    -175.725E-03    -101.019E-03     328.180E-03     131.325E+06     110.972E+06     23.5526E+06    -34.8532E+06    -5.79505E+06    -5.50560E+06     110.972E+06    -26.5618E+06
            2103     151.423E-03     9.27267E-03     151.139E-03     307.948E-03    -133.523E-03    -174.425E-03    -126.738E-03     301.163E-03    -174.425E-03    -91.5904E-03     322.615E-03     133.265E+06     113.227E+06     19.1299E+06    -34.6170E+06    -8.47964E+06    -7.00740E+06     113.227E+06    -24.1130E+06
            2104     151.704E-03     10.1309E-03     151.365E-03     299.915E-03    -127.136E-03    -172.779E-03    -121.172E-03     293.951E-03    -172.779E-03    -78.4494E-03     317.482E-03     135.024E+06     115.474E+06     17.5460E+06    -33.9534E+06    -10.8521E+06    -5.55530E+06     115.474E+06    -22.7240E+06
            2105     151.988E-03     10.9969E-03     151.589E-03     293.258E-03    -122.418E-03    -170.840E-03    -117.475E-03     288.315E-03    -170.840E-03    -60.8656E-03     314.155E-03     136.692E+06     114.345E+06     13.4385E+06    -36.7645E+06    -13.6119E+06    -9.71409E+06     114.345E+06    -22.3829E+06
            2106     152.281E-03     11.8712E-03     151.818E-03     289.565E-03    -120.815E-03    -168.750E-03    -116.751E-03     285.501E-03    -168.750E-03    -40.5459E-03     314.177E-03     137.291E+06     115.006E+06     12.6408E+06    -36.5842E+06    -15.9051E+06    -8.03833E+06     115.006E+06    -22.4630E+06
            2107     152.566E-03     12.7449E-03     152.033E-03     290.430E-03    -123.723E-03    -166.707E-03    -120.520E-03     287.227E-03    -166.707E-03    -19.0487E-03     319.711E-03     135.332E+06     117.686E+06     14.7019E+06    -31.2827E+06    -19.0259E+06     2.44515E+06     117.686E+06    -19.2041E+06
            2108     152.834E-03     13.6187E-03     152.226E-03     297.388E-03    -128.513E-03    -168.875E-03    -130.092E-03     295.062E-03    -164.970E-03     3.48974E-03     333.304E-03     130.313E+06     112.210E+06     3.20571E+06    -29.4975E+06    -15.7635E+06    -10.5283E+06     112.210E+06    -11.7814E+06
            2109     153.078E-03     14.4784E-03     152.392E-03     305.909E-03    -132.539E-03    -173.370E-03    -141.084E-03     304.749E-03    -163.665E-03     13.8957E-03     346.639E-03     115.988E+06     108.035E+06     16.1258E+06    -18.6176E+06    -7.63262E+06     5.14081E+06     108.035E+06    -5.77341E+06


