********************************************************************************
Field Output Report, written Thu Apr 10 16:02:28 2025

Source 1
---------

   ODB: F:/Abaqus_calc/Vel_40/odb/Correct/aisi_1020_2a_8_red_1500_cal_100_vel_40_fric_0100.odb
   Step: Step-1
   Frame: Increment   2790549: Step Time =   0.3438

Loc 1 : Nodal values from source 1

Output sorted by column "Nodal Label".

Field Output reported at nodes for region: DIE_2A_8_D0_36-1.Region_1
   Computation algorithm: EXTRAPOLATE_COMPUTE_AVERAGE
   Averaged at nodes
   Averaging regions: ODB_REGIONS

      Node Label  COORD.Magnitude     COORD.COOR1     COORD.COOR2
                          @Loc 1          @Loc 1          @Loc 1
------------------------------------------------------------------
               1     152.878E-03     16.3673E-03     151.999E-03


Field Output reported at nodes for region: DIE_2A_8_D0_36-1.Region_2
   Computation algorithm: EXTRAPOLATE_COMPUTE_AVERAGE
   Averaged at nodes
   Averaging regions: ODB_REGIONS

      Node Label  COORD.Magnitude     COORD.COOR1     COORD.COOR2
                          @Loc 1          @Loc 1          @Loc 1
------------------------------------------------------------------
               1     152.878E-03     16.3673E-03     151.999E-03


Field Output reported at nodes for part: WIRE_1-1
   Computation algorithm: EXTRAPOLATE_COMPUTE_AVERAGE
   Averaged at nodes
   Averaging regions: ODB_REGIONS

      Node Label  COORD.Magnitude     COORD.COOR1     COORD.COOR2    PE.Max. Prin    PE.Mid. Prin    PE.Min. Prin         PE.PE11         PE.PE22         PE.PE33         PE.PE12            PEEQ         S.Mises     S.Max. Prin     S.Mid. Prin     S.Min. Prin           S.S11           S.S22           S.S33           S.S12
                          @Loc 1          @Loc 1          @Loc 1          @Loc 1          @Loc 1          @Loc 1          @Loc 1          @Loc 1          @Loc 1          @Loc 1          @Loc 1          @Loc 1          @Loc 1          @Loc 1          @Loc 1          @Loc 1          @Loc 1          @Loc 1          @Loc 1
----------------------------------------------------------------------------------------------------------------------------------------------------------------------------------------------------------------------------------------------------------------------------------------------------------------------------------
               1     78.8671E-03     15.2464E-03     77.3794E-03     339.739E-03    -164.743E-03    -174.996E-03    -168.808E-03     336.540E-03    -167.732E-03     80.1220E-03     361.943E-03     157.290E+06     185.775E+06     106.076E+06     4.61457E+06     4.85949E+06     105.831E+06     185.775E+06     360.244E+03
               2     76.4079E-03     2.93685E-06     76.4079E-03     337.094E-03    -167.689E-03    -169.405E-03    -169.248E-03     337.087E-03    -167.838E-03     3.40589E-03     337.682E-03     128.514E+06    -96.0657E+06    -99.0273E+06    -226.029E+06    -98.7935E+06    -225.227E+06    -97.1011E+06    -710.879E+03
               3     1.47356E-06     1.47356E-06     305.311E-18     361.296E-03    -179.481E-03    -181.815E-03    -181.813E-03     361.295E-03    -179.481E-03     1.49083E-03     361.007E-03     109.208E+06    -99.5070E+06    -100.181E+06    -209.050E+06    -101.728E+06    -207.503E+06    -99.5070E+06    -12.8842E+06
               4     15.1253E-03     15.1253E-03     305.311E-18     470.684E-03    -170.054E-03    -300.630E-03    -297.412E-03     467.465E-03    -170.054E-03     99.4415E-03     495.823E-03     156.426E+06     150.429E+06     37.7583E+06    -28.1690E+06    -23.8109E+06     33.4002E+06     150.429E+06    -16.3807E+06
               5     155.003E-03     15.3060E-03     154.245E-03     233.229E-03    -66.4805E-03    -166.749E-03    -64.7630E-03     231.512E-03    -166.749E-03     45.2459E-03     274.501E-03     105.952E+06     59.2450E+06     52.2604E+06    -50.0265E+06    -49.4559E+06     58.6744E+06     52.2604E+06    -7.87586E+06
               6     152.199E-03     10.2885E-06     152.199E-03     395.596E-03    -191.202E-03    -204.394E-03    -204.350E-03     395.552E-03    -191.202E-03    -10.2803E-03     398.800E-03     121.417E+06     102.386E+06     99.0236E+06    -20.6771E+06     98.1068E+06    -19.7603E+06     102.386E+06    -10.4356E+06
               7     78.5760E-03     14.3909E-03     77.2470E-03     343.226E-03    -165.913E-03    -177.313E-03    -172.569E-03     339.977E-03    -167.408E-03     81.5986E-03     371.284E-03     132.000E+06     143.187E+06     79.0899E+06    -8.56450E+06    -7.96641E+06     78.4918E+06     143.187E+06     4.04977E+06
               8     78.2747E-03     13.5612E-03     77.0910E-03     343.120E-03    -166.749E-03    -176.371E-03    -173.559E-03     340.308E-03    -166.749E-03     75.9568E-03     373.651E-03     88.0812E+06     76.2797E+06     35.7807E+06    -24.7614E+06    -20.7341E+06     31.7534E+06     76.2797E+06     2.76676E+06
               9     78.0217E-03     12.7181E-03     76.9782E-03     334.690E-03    -164.980E-03    -169.710E-03    -166.429E-03     332.789E-03    -166.361E-03     61.3331E-03     358.510E-03     64.8615E+06     48.1124E+06     15.9190E+06    -26.4145E+06    -19.7776E+06     9.28211E+06     48.1124E+06    -1.61472E+06
              10     77.8015E-03     11.8601E-03     76.8922E-03     331.423E-03    -164.104E-03    -167.320E-03    -163.705E-03     330.055E-03    -166.350E-03     51.9281E-03     350.599E-03     58.3356E+06     36.4269E+06     3.93646E+06    -30.6418E+06    -26.9415E+06     236.190E+03     36.4269E+06     480.678E+03
              11     77.5998E-03     11.0126E-03     76.8144E-03     333.900E-03    -165.535E-03    -168.365E-03    -166.196E-03     332.597E-03    -166.401E-03     50.9741E-03     351.290E-03     63.1492E+06     32.4640E+06    -1.52174E+06    -40.1339E+06    -38.6511E+06    -3.00450E+06     32.4640E+06     469.733E+03
              12     77.4218E-03     10.1664E-03     76.7514E-03     333.794E-03    -165.664E-03    -168.130E-03    -166.274E-03     332.680E-03    -166.406E-03     46.8837E-03     348.587E-03     71.2545E+06     38.4483E+06     4.10087E+06    -43.3941E+06    -41.8959E+06     2.60271E+06     38.4483E+06     1.76437E+06
              13     77.2438E-03     9.32054E-03     76.6795E-03     332.830E-03    -165.329E-03    -167.501E-03    -165.713E-03     332.108E-03    -166.395E-03     37.6912E-03     344.704E-03     71.2151E+06     33.8357E+06     2.68248E+06    -47.5919E+06    -46.9018E+06     1.99244E+06     33.8357E+06     3.50409E+06
              14     77.0929E-03     8.47100E-03     76.6261E-03     333.008E-03    -165.946E-03    -167.062E-03    -166.143E-03     332.525E-03    -166.382E-03     30.9253E-03     343.330E-03     71.9380E+06     27.0230E+06    -123.502E+03    -54.4450E+06    -53.0282E+06    -1.54031E+06     27.0230E+06     5.42405E+06
              15     76.9617E-03     7.62610E-03     76.5829E-03     332.144E-03    -165.404E-03    -166.741E-03    -165.439E-03     331.809E-03    -166.369E-03     25.7136E-03     340.773E-03     68.1135E+06     18.9679E+06    -335.205E+03    -56.4583E+06    -54.7198E+06    -2.07373E+06     18.9679E+06     7.24737E+06
              16     76.8396E-03     6.77734E-03     76.5402E-03     331.211E-03    -164.699E-03    -166.511E-03    -164.542E-03     330.985E-03    -166.443E-03     20.9906E-03     338.106E-03     56.2378E+06     1.54092E+06    -17.1510E+06    -61.1233E+06    -60.3107E+06    -17.9636E+06     1.54092E+06     4.28718E+06
              17     76.7310E-03     5.92707E-03     76.5017E-03     332.407E-03    -165.590E-03    -166.817E-03    -165.697E-03     332.253E-03    -166.557E-03     17.3707E-03     337.890E-03     49.6264E+06    -15.6515E+06    -47.3455E+06    -71.6300E+06    -68.6336E+06    -50.3419E+06    -15.6515E+06     3.87504E+06
              18     76.6434E-03     5.08269E-03     76.4747E-03     332.995E-03    -166.169E-03    -166.826E-03    -166.337E-03     332.902E-03    -166.566E-03     13.3534E-03     337.037E-03     50.7354E+06    -33.8448E+06    -68.4734E+06    -91.1097E+06    -75.3626E+06    -84.2205E+06    -33.8448E+06     6.70370E+06
              19     76.5702E-03     4.23502E-03     76.4529E-03     331.512E-03    -164.826E-03    -166.686E-03    -164.773E-03     331.458E-03    -166.686E-03     10.0596E-03     334.258E-03     55.4083E+06    -57.8404E+06    -83.5787E+06    -120.833E+06    -85.5003E+06    -118.911E+06    -57.8404E+06     4.77943E+06
              20     76.5097E-03     3.38633E-03     76.4347E-03     331.141E-03    -163.916E-03    -167.225E-03    -163.884E-03     331.108E-03    -167.225E-03     7.53533E-03     332.996E-03     61.3152E+06    -75.9033E+06    -92.6624E+06    -143.275E+06    -92.8513E+06    -143.086E+06    -75.9033E+06     1.26692E+06
              21     76.4612E-03     2.53529E-03     76.4192E-03     333.317E-03    -165.210E-03    -168.107E-03    -165.193E-03     333.300E-03    -168.107E-03     5.79654E-03     334.414E-03     76.0713E+06    -85.3656E+06    -94.8305E+06    -165.377E+06    -95.1504E+06    -165.058E+06    -85.3656E+06     714.679E+03
              22     76.4315E-03     1.68838E-03     76.4129E-03     336.939E-03    -167.568E-03    -169.370E-03    -168.182E-03     336.915E-03    -168.732E-03     6.81936E-03     337.473E-03     82.0536E+06    -92.7886E+06    -101.251E+06    -178.693E+06    -99.5517E+06    -178.282E+06    -94.8985E+06    -1.76334E+06
              23     76.4109E-03     846.122E-06     76.4063E-03     338.020E-03    -168.244E-03    -169.776E-03    -169.647E-03     338.001E-03    -168.354E-03     5.61893E-03     338.468E-03     102.407E+06    -95.6728E+06    -102.398E+06    -201.147E+06    -100.342E+06    -200.576E+06    -98.3004E+06    -2.27037E+06
              24     75.0070E-03    -416.245E-09     75.0070E-03     342.170E-03    -169.651E-03    -172.520E-03    -171.216E-03     342.169E-03    -170.953E-03     1.78239E-03     342.628E-03     115.837E+06    -111.271E+06    -117.552E+06    -230.109E+06    -113.781E+06    -229.526E+06    -115.625E+06    -3.38912E+06
              25     73.5819E-03    -2.16903E-06     73.5819E-03     338.098E-03    -167.426E-03    -170.671E-03    -167.381E-03     338.052E-03    -170.671E-03     7.58594E-03     338.714E-03     126.848E+06    -104.082E+06    -108.986E+06    -233.267E+06    -104.876E+06    -233.023E+06    -108.436E+06     5.33462E+06
              26     72.1696E-03    -1.51297E-06     72.1696E-03     323.126E-03    -158.917E-03    -164.208E-03    -162.214E-03     323.075E-03    -160.861E-03     9.14267E-03     323.793E-03     120.499E+06    -104.709E+06    -105.991E+06    -225.845E+06    -106.197E+06    -225.639E+06    -104.709E+06     2.60380E+06
              27     70.8336E-03     6.96081E-06     70.8336E-03     314.626E-03    -155.234E-03    -159.392E-03    -159.386E-03     314.619E-03    -155.234E-03     2.19149E-03     315.024E-03     107.616E+06    -110.161E+06    -114.251E+06    -219.736E+06    -110.977E+06    -219.652E+06    -113.519E+06    -2.80259E+06
              28     69.4763E-03    -5.87509E-06     69.4763E-03     327.939E-03    -162.613E-03    -165.326E-03    -163.423E-03     327.938E-03    -164.515E-03     600.304E-06     328.439E-03     107.264E+06    -105.909E+06    -110.965E+06    -215.599E+06    -106.222E+06    -215.286E+06    -110.965E+06     1.79406E+06
              29     68.0494E-03     2.51631E-06     68.0494E-03     339.525E-03    -168.456E-03    -171.068E-03    -169.164E-03     339.523E-03    -170.359E-03    -351.769E-06     340.024E-03     108.896E+06    -101.861E+06    -109.721E+06    -214.398E+06    -108.269E+06    -214.153E+06    -103.559E+06     3.39639E+06
              30     66.6389E-03    -1.34202E-06     66.6389E-03     330.801E-03    -164.886E-03    -165.915E-03    -165.583E-03     330.789E-03    -165.205E-03     1.93867E-03     331.074E-03     97.1537E+06    -102.407E+06    -109.877E+06    -203.011E+06    -109.883E+06    -203.004E+06    -102.407E+06     130.724E+03
              31     65.2764E-03     563.802E-09     65.2764E-03     330.567E-03    -163.931E-03    -166.636E-03    -166.306E-03     330.557E-03    -164.251E-03     3.60501E-03     330.900E-03     99.9988E+06    -100.713E+06    -107.010E+06    -203.678E+06    -102.031E+06    -203.668E+06    -105.703E+06    -134.774E+03
              32     63.8718E-03     3.14075E-06     63.8718E-03     339.492E-03    -168.382E-03    -171.111E-03    -171.107E-03     339.489E-03    -168.382E-03    -1.38119E-03     339.936E-03     118.064E+06    -95.2901E+06    -104.966E+06    -217.892E+06    -99.9856E+06    -217.883E+06    -100.280E+06    -1.04446E+06
              33     62.4640E-03    -2.79279E-06     62.4640E-03     341.271E-03    -170.117E-03    -171.153E-03    -170.458E-03     341.268E-03    -170.810E-03    -1.57933E-03     341.736E-03     114.794E+06    -95.1554E+06    -104.208E+06    -214.207E+06    -99.9328E+06    -214.116E+06    -99.5218E+06     1.71953E+06
              34     61.0591E-03     1.36611E-06     61.0591E-03     344.144E-03    -171.586E-03    -172.558E-03    -171.846E-03     344.124E-03    -172.278E-03     4.79744E-03     344.541E-03     102.033E+06    -94.1354E+06    -103.838E+06    -200.668E+06    -99.6198E+06     -200.52E+06    -98.5018E+06     508.022E+03
              35     59.6232E-03    -1.14383E-06     59.6232E-03     337.657E-03    -168.301E-03    -169.356E-03    -169.335E-03     337.636E-03    -168.301E-03     5.68145E-03     337.974E-03     101.034E+06    -94.6252E+06    -104.064E+06    -200.040E+06    -100.259E+06    -199.742E+06    -98.7276E+06    -5.22691E+06
              36     58.2451E-03     2.28574E-06     58.2451E-03     325.251E-03    -161.952E-03    -163.298E-03    -163.257E-03     325.209E-03    -161.952E-03     7.32098E-03     325.538E-03     98.9369E+06    -111.131E+06    -115.421E+06    -212.090E+06    -112.153E+06    -211.255E+06    -115.234E+06     1.73551E+06
              37     56.8765E-03    -1.57129E-06     56.8765E-03     328.657E-03    -163.507E-03    -165.150E-03    -165.104E-03     328.611E-03    -163.507E-03     3.74700E-03     329.040E-03     101.680E+06    -97.6962E+06    -99.6298E+06    -200.321E+06    -98.5518E+06    -199.653E+06    -99.4423E+06     3.31165E+06
              38     55.4828E-03     3.11641E-06     55.4828E-03     336.089E-03    -167.234E-03    -168.855E-03    -168.848E-03     336.082E-03    -167.234E-03    -1.62372E-03     336.462E-03     101.464E+06    -93.0090E+06    -98.2688E+06    -196.984E+06    -96.7037E+06    -196.803E+06    -94.7551E+06    -4.20815E+06
              39     54.0719E-03    -2.35544E-06     54.0719E-03     338.594E-03    -168.801E-03    -169.793E-03    -169.328E-03     338.573E-03    -169.245E-03     5.35515E-03     338.908E-03     106.888E+06    -102.209E+06    -108.486E+06    -212.090E+06    -105.917E+06    -211.896E+06    -104.973E+06     26.3388E+03
              40     52.6590E-03     1.30725E-06     52.6590E-03     332.628E-03    -165.525E-03    -167.103E-03    -166.638E-03     332.607E-03    -165.969E-03     3.53225E-03     333.028E-03     116.147E+06    -91.1795E+06    -97.0720E+06    -210.159E+06    -91.2912E+06    -210.048E+06    -97.0720E+06     3.52856E+06
              41     51.2836E-03     403.969E-09     51.2836E-03     326.439E-03    -161.998E-03    -164.442E-03    -163.113E-03     326.421E-03    -163.307E-03     3.20664E-03     326.880E-03     100.239E+06    -98.7899E+06    -103.241E+06    -201.174E+06    -100.226E+06    -201.060E+06    -101.919E+06    -657.992E+03
              42     49.9173E-03    -2.80180E-06     49.9173E-03     335.725E-03    -166.633E-03    -169.092E-03    -167.744E-03     335.687E-03    -167.943E-03    -389.932E-06     336.252E-03     98.4245E+06    -101.397E+06    -108.627E+06    -203.182E+06    -108.752E+06    -203.057E+06    -101.397E+06    -517.211E+03
              43     48.4811E-03     4.52296E-06     48.4811E-03     336.146E-03    -167.429E-03    -168.718E-03    -168.555E-03     336.124E-03    -167.569E-03    -5.89213E-03     336.556E-03     105.222E+06    -89.9280E+06    -101.857E+06    -200.605E+06    -95.9196E+06    -200.523E+06    -95.9484E+06     2.93993E+06
              44     47.1117E-03    -5.07182E-06     47.1117E-03     333.277E-03    -165.983E-03    -167.294E-03    -165.971E-03     333.265E-03    -167.294E-03     1.97086E-03     333.544E-03     92.1812E+06    -96.5771E+06    -103.498E+06    -191.942E+06    -97.7764E+06    -191.643E+06    -102.597E+06    -1.70093E+06
              45     45.6989E-03     2.90368E-06     45.6989E-03     341.336E-03    -169.662E-03    -171.674E-03    -170.493E-03     341.325E-03    -170.832E-03     3.05230E-03     341.677E-03     84.1744E+06    -108.384E+06    -109.640E+06    -193.178E+06    -110.103E+06    -192.360E+06    -108.739E+06     1.63951E+06
              46     44.2799E-03    -1.65127E-06     44.2799E-03     335.690E-03    -167.238E-03    -168.452E-03    -168.073E-03     335.683E-03    -167.610E-03     2.25279E-03     336.041E-03     84.5459E+06    -103.230E+06    -103.590E+06    -187.954E+06    -104.011E+06    -187.173E+06    -103.590E+06     1.85088E+06
              47     42.8970E-03     812.869E-09     42.8970E-03     327.276E-03    -163.308E-03    -163.968E-03    -163.568E-03     327.248E-03    -163.680E-03     7.12959E-03     327.521E-03     87.6024E+06    -94.7276E+06    -96.9421E+06    -183.397E+06    -97.1595E+06    -183.175E+06    -94.7324E+06    -3.45819E+06
              48     41.5159E-03    -583.447E-09     41.5159E-03     335.010E-03    -167.269E-03    -167.740E-03    -167.518E-03     334.970E-03    -167.452E-03     8.95142E-03     335.254E-03     91.2652E+06    -96.1416E+06    -105.285E+06    -191.542E+06    -98.4751E+06    -191.419E+06    -103.076E+06     1.97266E+06
              49     40.1037E-03    -78.1846E-09     40.1037E-03     338.993E-03    -169.132E-03    -169.860E-03    -169.659E-03     338.974E-03    -169.315E-03     4.05493E-03     339.302E-03     88.3565E+06    -95.1705E+06    -107.095E+06    -188.874E+06    -100.326E+06    -188.709E+06    -102.105E+06     3.75888E+06
              50     38.6988E-03     854.174E-09     38.6988E-03     332.197E-03    -165.004E-03    -167.194E-03    -167.182E-03     332.186E-03    -165.004E-03     3.07911E-03     332.479E-03     82.2246E+06    -101.791E+06    -108.437E+06    -187.093E+06    -107.259E+06    -186.616E+06    -103.446E+06    -2.80348E+06
              51     37.3295E-03     1.61836E-06     37.3295E-03     332.830E-03    -165.400E-03    -167.430E-03    -167.030E-03     332.815E-03    -165.785E-03     1.38999E-03     333.134E-03     84.3721E+06    -108.987E+06    -113.706E+06    -195.614E+06    -112.484E+06    -195.180E+06    -110.642E+06    -3.87014E+06
              52     35.9278E-03    -2.50176E-06     35.9278E-03     339.989E-03    -169.737E-03    -170.252E-03    -169.863E-03     339.985E-03    -170.122E-03    -2.01423E-03     340.308E-03     95.8405E+06    -97.4775E+06    -103.742E+06    -196.296E+06    -100.549E+06    -196.289E+06    -100.678E+06     804.668E+03
              53     34.5085E-03     2.43420E-06     34.5085E-03     345.220E-03    -172.272E-03    -172.948E-03    -172.363E-03     345.181E-03    -172.818E-03     6.28580E-03     345.504E-03     96.5758E+06    -99.5674E+06    -105.547E+06    -198.994E+06    -102.429E+06    -198.912E+06    -102.768E+06    -1.31062E+06
              54     33.0852E-03    -3.67190E-06     33.0852E-03     340.458E-03    -169.683E-03    -170.775E-03    -170.188E-03     340.417E-03    -170.229E-03     4.64915E-03     340.781E-03     88.3298E+06    -105.315E+06    -110.785E+06    -196.253E+06    -108.818E+06    -195.530E+06    -108.005E+06     3.46418E+06
              55     31.6981E-03     4.38583E-06     31.6981E-03     334.804E-03    -166.575E-03    -168.228E-03    -168.162E-03     334.737E-03    -166.575E-03     6.34097E-03     335.080E-03     87.1218E+06    -92.9934E+06    -99.2142E+06    -183.057E+06    -97.3646E+06    -182.216E+06    -95.6835E+06     2.43333E+06
              56     30.3077E-03    -2.80953E-06     30.3077E-03     344.002E-03    -171.046E-03    -172.955E-03    -172.087E-03     343.936E-03    -171.849E-03     9.39587E-03     344.205E-03       86.01E+06    -87.5854E+06    -95.5021E+06    -177.275E+06    -91.4932E+06    -176.898E+06    -91.9714E+06    -5.68588E+06
              57     28.8693E-03     1.14307E-06     28.8693E-03     348.955E-03    -174.048E-03    -174.906E-03    -174.031E-03     348.938E-03    -174.906E-03     5.34320E-03     349.072E-03     81.2807E+06    -96.5716E+06    -105.358E+06    -181.888E+06    -101.548E+06    -181.312E+06    -100.958E+06     985.911E+03
              58     27.4678E-03    -1.53430E-06     27.4678E-03     347.411E-03    -172.934E-03    -174.477E-03    -174.390E-03     347.380E-03    -172.990E-03     8.13239E-03     347.475E-03     91.9054E+06    -93.4567E+06    -105.429E+06    -190.752E+06    -98.2886E+06    -190.320E+06    -101.029E+06     2.34676E+06
              59     26.0440E-03     3.63380E-06     26.0440E-03     343.395E-03    -170.790E-03    -172.605E-03    -172.587E-03     343.377E-03    -170.790E-03     5.40124E-03     343.470E-03     99.4979E+06    -88.5319E+06    -102.174E+06    -194.145E+06    -94.6428E+06    -194.104E+06    -96.1042E+06    -1.78062E+06
              60     24.6433E-03    -3.21034E-06     24.6433E-03     332.675E-03    -166.082E-03    -166.593E-03    -166.582E-03     332.663E-03    -166.082E-03     4.33924E-03     332.740E-03     94.3819E+06    -98.1569E+06    -107.492E+06    -196.828E+06    -104.399E+06    -196.656E+06    -101.422E+06    -3.18719E+06
              61     23.2643E-03     3.25088E-06     23.2643E-03     330.789E-03    -164.933E-03    -165.856E-03    -165.841E-03     330.774E-03    -164.933E-03     5.38379E-03     330.856E-03     105.278E+06    -98.1831E+06    -102.836E+06    -205.690E+06    -99.7587E+06    -205.503E+06    -101.448E+06    -1.84799E+06
              62     21.8702E-03    -2.14684E-06     21.8702E-03     334.766E-03    -166.438E-03    -168.328E-03    -167.172E-03     334.760E-03    -167.588E-03     3.10336E-03     334.809E-03     112.536E+06    -93.0936E+06    -95.8972E+06    -207.006E+06    -94.5889E+06    -206.899E+06    -94.5089E+06     3.23179E+06
              63     20.4636E-03     51.6956E-09     20.4636E-03     333.064E-03    -165.654E-03    -167.409E-03    -166.257E-03     333.062E-03    -166.805E-03     2.03911E-03     333.084E-03     112.671E+06    -90.6282E+06    -96.1042E+06    -205.917E+06    -94.9185E+06    -205.688E+06    -92.0435E+06    -592.222E+03
              64     19.0809E-03     856.088E-09     19.0809E-03     329.455E-03    -164.345E-03    -165.110E-03    -165.108E-03     329.453E-03    -164.345E-03     2.29989E-03     329.449E-03     114.520E+06    -96.4221E+06    -104.451E+06    -214.746E+06    -100.693E+06    -214.535E+06    -100.391E+06    -4.81362E+06
              65     17.6887E-03    -815.887E-09     17.6887E-03     326.157E-03    -162.765E-03    -163.392E-03    -163.391E-03     326.156E-03    -162.765E-03     979.181E-06     326.138E-03     117.673E+06    -93.2192E+06    -103.417E+06    -215.649E+06    -93.7153E+06    -215.153E+06    -103.417E+06     3.20979E+06
              66     16.3101E-03     1.38729E-06     16.3101E-03     320.505E-03    -159.976E-03    -160.529E-03    -160.529E-03     320.505E-03    -159.976E-03     153.005E-06     320.503E-03     123.475E+06    -86.5044E+06    -97.3850E+06    -215.052E+06    -91.7893E+06    -214.418E+06    -92.7338E+06     1.71009E+06
              67     14.9338E-03    -1.35409E-06     14.9338E-03     311.483E-03    -155.686E-03    -155.797E-03    -155.772E-03     311.483E-03    -155.711E-03     88.9808E-06     311.462E-03     116.300E+06    -104.533E+06    -111.801E+06    -224.288E+06    -109.394E+06    -224.078E+06    -107.150E+06    -3.95960E+06
              68     13.5785E-03     1.05139E-06     13.5785E-03     300.977E-03    -150.379E-03    -150.598E-03    -150.378E-03     300.976E-03    -150.598E-03    -1.05988E-03     300.927E-03     108.375E+06    -107.019E+06    -112.329E+06    -217.951E+06    -107.203E+06    -217.766E+06    -112.329E+06     2.71134E+06
              69     12.2383E-03    -1.60819E-06     12.2383E-03     290.905E-03    -144.958E-03    -145.946E-03    -145.747E-03     290.901E-03    -145.154E-03    -2.42543E-03     290.906E-03     103.289E+06    -103.994E+06    -112.292E+06    -211.141E+06    -110.097E+06    -210.643E+06    -106.687E+06    -645.236E+03
              70     10.9041E-03     2.83567E-06     10.9041E-03     282.152E-03    -140.632E-03    -141.520E-03    -141.514E-03     282.146E-03    -140.632E-03    -3.20353E-03     282.175E-03     95.5342E+06    -108.744E+06    -114.780E+06    -207.054E+06    -116.107E+06    -205.727E+06    -108.744E+06     2.94937E+06
              71     9.59262E-03    -2.95622E-06     9.59262E-03     276.358E-03    -137.818E-03    -138.539E-03    -137.910E-03     276.352E-03    -138.443E-03    -2.90599E-03     276.356E-03     82.9814E+06    -103.762E+06    -107.388E+06    -188.450E+06    -105.267E+06    -187.375E+06    -106.958E+06     5.18582E+06
              72     8.26728E-03     1.61416E-06     8.26728E-03     277.325E-03    -137.901E-03    -139.423E-03    -137.897E-03     277.320E-03    -139.423E-03     341.580E-06     277.372E-03     69.1924E+06    -101.515E+06    -105.134E+06    -172.410E+06    -101.845E+06    -172.080E+06    -105.134E+06     1.36422E+06
              73     6.95276E-03    -3.40434E-06     6.95276E-03     286.801E-03    -142.771E-03    -144.029E-03    -143.128E-03     286.797E-03    -143.669E-03     621.560E-06     286.929E-03     76.4402E+06    -94.5808E+06    -96.1891E+06    -171.811E+06    -96.5514E+06    -171.026E+06    -95.0034E+06    -1.77583E+06
              74     5.61107E-03     3.73707E-06     5.61107E-03     301.576E-03    -149.930E-03    -151.645E-03    -151.641E-03     301.571E-03    -149.930E-03     918.308E-06     301.641E-03     87.8765E+06    -99.8702E+06    -101.478E+06    -188.537E+06    -101.863E+06    -187.731E+06    -100.293E+06    -8.26137E+06
              75     4.24536E-03    -1.74459E-06     4.24536E-03     320.142E-03    -159.032E-03    -161.109E-03    -160.371E-03     320.125E-03    -159.755E-03     5.38190E-03     320.138E-03     104.972E+06    -93.3533E+06    -95.6185E+06    -199.436E+06    -94.0847E+06    -198.705E+06    -95.6185E+06     1.67556E+06
              76     2.85487E-03     13.6322E-09     2.85487E-03     340.768E-03    -169.909E-03    -170.859E-03    -170.123E-03     340.754E-03    -170.631E-03     4.59074E-03     340.779E-03     123.537E+06    -63.9033E+06    -67.4176E+06    -189.160E+06    -66.0377E+06    -188.697E+06    -65.7461E+06     6.27217E+06
              77     1.43537E-03    -282.464E-09     1.43537E-03     356.063E-03    -177.335E-03    -178.729E-03    -178.727E-03     356.062E-03    -177.335E-03     1.81863E-03     355.916E-03     117.248E+06    -75.5202E+06    -77.5289E+06    -193.755E+06      -78.32E+06    -192.964E+06    -75.5202E+06    -5.39511E+06
              78     833.316E-06     833.316E-06     305.311E-18     359.736E-03    -179.090E-03    -180.645E-03    -180.256E-03     359.735E-03    -179.479E-03     1.46445E-03     359.371E-03     73.4298E+06    -78.4588E+06    -88.1821E+06    -154.904E+06    -89.3101E+06    -153.776E+06    -78.4588E+06    -8.49905E+06
              79     1.67142E-03     1.67142E-03     305.311E-18     355.403E-03    -176.585E-03    -178.817E-03    -176.583E-03     355.400E-03    -178.817E-03     2.07192E-03     355.146E-03     47.3916E+06    -55.1452E+06    -73.5589E+06    -108.808E+06    -74.7598E+06    -107.607E+06    -55.1452E+06     2.26925E+06
              80     2.50950E-03     2.50950E-03     305.311E-18     348.754E-03    -171.578E-03    -177.176E-03    -171.572E-03     348.748E-03    -177.176E-03     3.37286E-03     348.783E-03     51.6280E+06    -52.5637E+06    -67.0962E+06    -109.869E+06    -68.8075E+06    -108.158E+06    -52.5637E+06     277.815E+03
              81     3.35450E-03     3.35450E-03     305.311E-18     340.516E-03    -165.534E-03    -174.982E-03    -165.524E-03     340.506E-03    -174.982E-03     4.47548E-03     340.733E-03     34.4384E+06    -50.5994E+06    -61.5582E+06    -88.9923E+06    -62.9371E+06    -87.6134E+06    -50.5994E+06    -2.13703E+06
              82     4.20443E-03     4.20443E-03     305.311E-18     332.261E-03    -159.790E-03    -172.471E-03    -159.778E-03     332.249E-03    -172.471E-03     4.87894E-03     332.704E-03     16.6095E+06    -48.8993E+06    -54.4469E+06    -67.2551E+06    -60.0919E+06    -61.5162E+06    -48.9931E+06     1.37707E+06
              83     5.06019E-03     5.06019E-03     305.311E-18     324.624E-03    -154.725E-03    -169.899E-03    -154.712E-03     324.611E-03    -169.899E-03     5.04931E-03     325.380E-03     14.3766E+06    -40.6625E+06    -45.7683E+06    -56.4955E+06    -55.8891E+06    -41.2689E+06    -45.7683E+06    -2.88342E+06
              84     5.91751E-03     5.91751E-03     305.311E-18     317.074E-03    -149.690E-03    -167.383E-03    -149.675E-03     317.058E-03    -167.383E-03     5.39956E-03     318.201E-03     18.8333E+06    -29.3994E+06    -35.8171E+06    -50.2689E+06    -49.5655E+06    -30.1028E+06    -35.8171E+06    -3.59061E+06
              85     6.78226E-03     6.78226E-03     305.311E-18     310.637E-03    -145.683E-03    -164.953E-03    -145.666E-03     310.619E-03    -164.953E-03     5.57334E-03     312.187E-03     20.8864E+06    -22.1830E+06    -24.1204E+06    -43.9518E+06    -43.5669E+06    -23.0994E+06    -23.5888E+06    -2.82028E+06
              86     7.64859E-03     7.64859E-03     305.311E-18     306.838E-03    -144.098E-03    -162.740E-03    -144.080E-03     306.820E-03    -162.740E-03     5.76979E-03     308.915E-03     22.3847E+06    -16.6519E+06    -18.1384E+06    -39.7398E+06    -39.3189E+06    -18.5593E+06    -16.6519E+06    -175.662E+03
              87     8.51460E-03     8.51460E-03     305.311E-18     305.234E-03    -144.315E-03    -160.919E-03    -144.275E-03     305.194E-03    -160.919E-03     8.20870E-03     308.186E-03     24.7912E+06    -10.0419E+06    -15.5266E+06    -36.9669E+06    -36.6154E+06    -15.8782E+06    -10.0419E+06     85.2244E+03
              88     9.37704E-03     9.37704E-03     305.311E-18     303.764E-03    -144.294E-03    -159.470E-03    -144.257E-03     303.728E-03    -159.470E-03     7.49493E-03     307.336E-03     27.1125E+06    -1.03264E+06    -12.6429E+06    -31.9006E+06    -31.2102E+06    -13.3333E+06    -1.03264E+06    -3.36656E+06
              89     10.2501E-03     10.2501E-03     305.311E-18     304.184E-03    -145.872E-03    -158.312E-03    -145.863E-03     304.175E-03    -158.312E-03     4.04770E-03     307.831E-03     24.5200E+06     1.15583E+06    -8.14853E+06    -26.3748E+06    -21.5250E+06    -12.9984E+06     1.15583E+06    -6.88276E+06
              90     11.1129E-03     11.1129E-03     305.311E-18     311.066E-03    -152.747E-03    -158.318E-03    -153.322E-03     311.060E-03    -157.737E-03     3.40731E-03     315.338E-03     33.6755E+06     10.1604E+06    -2.72109E+06    -27.8218E+06    -17.4807E+06    -13.0621E+06     10.1604E+06     2.66866E+06
              91     11.9678E-03     11.9678E-03     305.311E-18     323.150E-03    -158.019E-03    -165.131E-03    -165.126E-03     323.145E-03    -158.019E-03     176.665E-06     328.975E-03     51.5084E+06     30.8470E+06    -565.727E+03    -28.1178E+06    -21.3558E+06    -7.32773E+06     30.8470E+06     4.58532E+06
              92     12.8162E-03     12.8162E-03     305.311E-18     345.190E-03    -159.333E-03    -185.857E-03    -185.764E-03     345.096E-03    -159.333E-03     8.67061E-03     353.356E-03     64.4300E+06     55.6235E+06     14.1918E+06    -18.4035E+06    -17.3203E+06     13.1086E+06     55.6235E+06    -308.949E+03
              93     13.6222E-03     13.6222E-03     305.311E-18     382.934E-03    -162.188E-03    -220.746E-03    -220.329E-03     382.516E-03    -162.188E-03     30.6374E-03     394.675E-03     93.3375E+06     84.6462E+06     28.7625E+06    -23.0949E+06    -20.9997E+06     26.6673E+06     84.6462E+06     9.82911E+06
              94     14.4049E-03     14.4049E-03     305.311E-18     437.988E-03    -167.067E-03    -270.921E-03    -268.985E-03     436.053E-03    -167.067E-03     70.2483E-03     457.523E-03     135.964E+06     124.700E+06     33.1573E+06    -31.2485E+06    -27.3132E+06     29.2220E+06     124.700E+06    -969.729E+03
              95     15.2835E-03     15.1925E-03     1.66470E-03     443.370E-03    -169.036E-03    -274.334E-03    -270.535E-03     439.571E-03    -169.036E-03     103.479E-03     476.129E-03     155.979E+06     156.756E+06     45.2954E+06    -21.4929E+06    -18.9017E+06     42.7043E+06     156.756E+06    -11.9010E+06
              96     15.5555E-03     15.2285E-03     3.17269E-03     395.088E-03    -167.815E-03    -227.273E-03    -223.742E-03     391.557E-03    -167.815E-03     93.1177E-03     431.904E-03     157.862E+06     176.815E+06     65.3180E+06    -3.81935E+06    -1.80229E+06     63.3009E+06     176.815E+06    -11.0659E+06
              97     15.9191E-03     15.2373E-03     4.60878E-03     367.577E-03    -167.487E-03    -200.090E-03    -197.223E-03     364.710E-03    -167.487E-03     80.3964E-03     393.919E-03     157.425E+06     187.858E+06     77.8968E+06     7.52520E+06     10.9144E+06     74.5076E+06     187.858E+06     349.839E+03
              98     16.3970E-03     15.2460E-03     6.03515E-03     358.569E-03    -167.304E-03    -191.265E-03    -188.770E-03     356.074E-03    -167.304E-03     73.4785E-03     377.464E-03     150.939E+06     179.828E+06     73.0781E+06     7.16382E+06     9.06614E+06     71.1758E+06     179.828E+06     9.61052E+06
              99     16.9710E-03     15.2418E-03     7.46351E-03     352.171E-03    -167.273E-03    -184.898E-03    -182.620E-03     349.893E-03    -167.273E-03     69.5658E-03     370.476E-03     151.048E+06     155.980E+06     48.2485E+06    -16.6654E+06    -14.8751E+06     46.4582E+06     155.980E+06    -5.45372E+06
             100     17.6395E-03     15.2498E-03     8.86542E-03     349.455E-03    -167.317E-03    -182.139E-03    -179.675E-03     346.991E-03    -167.317E-03     72.1763E-03     368.748E-03     156.424E+06     156.629E+06     43.8197E+06    -21.9065E+06    -19.9236E+06     41.8368E+06     156.629E+06    -10.4802E+06
             101     18.3920E-03     15.2413E-03     10.2942E-03     348.164E-03    -167.406E-03    -180.758E-03    -178.198E-03     345.604E-03    -167.406E-03     73.3097E-03     367.707E-03     155.814E+06     179.684E+06     67.0537E+06     1.88911E+06     4.48539E+06     64.4574E+06     179.684E+06     5.32501E+06
             102     19.2217E-03     15.2505E-03     11.7002E-03     344.539E-03    -167.539E-03    -177.000E-03    -174.207E-03     341.746E-03    -167.539E-03     76.1250E-03     364.298E-03     156.124E+06     177.097E+06     65.6887E+06    -1.34649E+06     2.77819E+06     61.5640E+06     177.097E+06     810.901E+03
             103     20.0965E-03     15.2390E-03     13.1011E-03     344.729E-03    -167.688E-03    -177.040E-03    -174.306E-03     341.995E-03    -167.688E-03     75.3355E-03     365.840E-03     158.639E+06     169.804E+06     54.0788E+06    -11.0165E+06    -8.78541E+06     51.8477E+06     169.804E+06    -4.13978E+06
             104     21.0498E-03     15.2431E-03     14.5170E-03     341.110E-03    -167.856E-03    -173.255E-03    -170.340E-03     338.195E-03    -167.856E-03     77.1343E-03     362.291E-03     153.656E+06     164.795E+06     51.9156E+06    -10.1909E+06    -9.79687E+06     51.5215E+06     164.795E+06     3.74423E+06
             105     22.0289E-03     15.2419E-03     15.9047E-03     337.988E-03    -167.923E-03    -170.065E-03    -166.818E-03     334.741E-03    -167.923E-03     80.9662E-03     359.434E-03     150.772E+06     169.876E+06     60.4156E+06    -2.09667E+06    -1.56002E+06     59.8790E+06     169.876E+06    -3.85024E+06
             106     23.0596E-03     15.2424E-03     17.3036E-03     340.548E-03    -167.880E-03    -172.668E-03    -169.493E-03     337.373E-03    -167.880E-03     80.4479E-03     362.216E-03     155.217E+06     171.588E+06     57.8697E+06    -5.23213E+06    -4.59825E+06     57.2358E+06     171.588E+06    -2.34378E+06
             107     24.1328E-03     15.2414E-03     18.7107E-03     339.642E-03    -167.955E-03    -171.686E-03    -168.568E-03     336.524E-03    -167.955E-03     79.5899E-03     360.891E-03     156.169E+06     169.143E+06     54.8846E+06    -8.79269E+06    -7.79597E+06     53.8878E+06     169.143E+06     7.08409E+06
             108     25.2276E-03     15.2397E-03     20.1043E-03     338.563E-03    -167.993E-03    -170.570E-03    -167.093E-03     335.086E-03    -167.993E-03     83.8171E-03     359.906E-03     152.707E+06     171.722E+06     60.9999E+06    -2.48534E+06    -1.56095E+06     60.0756E+06     171.722E+06     4.41646E+06
             109     26.3526E-03     15.2444E-03     21.4957E-03     338.234E-03    -167.807E-03    -170.427E-03    -167.011E-03     334.818E-03    -167.807E-03     83.0198E-03     359.998E-03     152.676E+06     171.446E+06     61.2003E+06    -2.81216E+06    -2.06321E+06     60.4514E+06     171.446E+06    -5.74485E+06
             110     27.5080E-03     15.2477E-03     22.8953E-03     337.939E-03    -167.767E-03    -170.172E-03    -167.333E-03     335.100E-03    -167.767E-03     75.6501E-03     360.276E-03     156.621E+06     168.387E+06     54.1738E+06    -10.1312E+06    -9.38485E+06     53.4275E+06     168.387E+06    -3.96131E+06
             111     28.6748E-03     15.2378E-03     24.2910E-03     339.485E-03    -167.958E-03    -171.526E-03    -168.605E-03     336.563E-03    -167.958E-03     76.9156E-03     361.982E-03     156.180E+06     173.506E+06     58.8584E+06    -4.36464E+06    -4.10611E+06     58.5999E+06     173.506E+06     3.59811E+06
             112     29.8773E-03     15.2415E-03     25.6973E-03     337.548E-03    -167.461E-03    -170.086E-03    -165.996E-03     333.948E-03    -167.952E-03     85.0397E-03     358.992E-03     152.517E+06     170.509E+06     60.6392E+06    -3.62039E+06    -3.08547E+06     60.1043E+06     170.509E+06    -373.887E+03
             113     31.0788E-03     15.2481E-03     27.0811E-03     335.536E-03    -167.313E-03    -168.223E-03    -164.253E-03     332.057E-03    -167.804E-03     83.2203E-03     356.535E-03     153.335E+06     163.008E+06     52.5298E+06    -12.0503E+06    -11.7404E+06     52.2199E+06     163.008E+06    -2.55555E+06
             114     32.3016E-03     15.2416E-03     28.4796E-03     335.164E-03    -166.927E-03    -168.238E-03    -164.657E-03     332.477E-03    -167.819E-03     73.1541E-03     355.152E-03     154.117E+06     172.434E+06     61.9141E+06    -3.61052E+06    -2.99384E+06     61.2974E+06     172.434E+06     4.99634E+06
             115     33.5195E-03     15.2469E-03     29.8511E-03     336.112E-03    -166.831E-03    -169.281E-03    -165.996E-03     333.719E-03    -167.724E-03     69.3178E-03     355.336E-03     149.660E+06     172.978E+06     68.4345E+06     1.55009E+06     2.20220E+06     67.7824E+06     172.978E+06     3.22617E+06
             116     34.7809E-03     15.2451E-03     31.2618E-03     338.520E-03    -167.567E-03    -170.953E-03    -168.718E-03     336.285E-03    -167.567E-03     67.2587E-03     358.185E-03     149.304E+06     161.537E+06     57.9868E+06    -9.60663E+06    -9.06591E+06     57.4461E+06     161.537E+06    -5.29747E+06
             117     36.0471E-03     15.2464E-03     32.6641E-03     336.208E-03    -166.687E-03    -169.521E-03    -166.129E-03     333.821E-03    -167.692E-03     69.0108E-03     357.272E-03     155.274E+06     159.026E+06     49.8553E+06    -18.7289E+06    -18.1630E+06     49.2894E+06     159.026E+06    -2.51872E+06
             118     37.3103E-03     15.2437E-03     34.0542E-03     332.026E-03    -164.076E-03    -167.950E-03    -161.442E-03     329.392E-03    -167.950E-03     72.0980E-03     353.424E-03     156.295E+06     178.135E+06     67.7836E+06    -713.750E+03    -447.094E+03     67.5169E+06     178.135E+06     4.12737E+06
             119     38.5841E-03     15.2436E-03     35.4453E-03     330.410E-03    -162.225E-03    -168.185E-03    -159.663E-03     327.848E-03    -168.185E-03     70.8566E-03     351.419E-03     154.551E+06     178.142E+06     70.9349E+06     997.377E+03     1.62193E+06     70.3103E+06     178.142E+06    -1.33228E+06
             120     39.8525E-03     15.2351E-03     36.8255E-03     327.857E-03    -159.601E-03    -168.256E-03    -156.851E-03     325.107E-03    -168.256E-03     72.9851E-03     348.060E-03     152.666E+06     168.278E+06     64.5953E+06    -7.02973E+06    -5.88883E+06     63.4544E+06     168.278E+06     1.07729E+06
             121     41.1335E-03     15.2513E-03     38.2016E-03     326.138E-03    -158.182E-03    -167.956E-03    -155.176E-03     323.132E-03    -167.956E-03     76.0671E-03     345.068E-03     148.388E+06     173.066E+06     73.3277E+06     2.53986E+06     3.68085E+06     72.1867E+06     173.066E+06     1.12296E+06
             122     42.4237E-03     15.2482E-03     39.5887E-03     335.503E-03    -163.387E-03    -172.116E-03    -164.908E-03     332.505E-03    -167.597E-03     77.4093E-03     355.416E-03     149.664E+06     171.764E+06     68.2096E+06     226.792E+03     1.11253E+06     67.3239E+06     171.764E+06    -16.1477E+03
             123     43.7483E-03     15.2431E-03     41.0069E-03     335.934E-03    -163.665E-03    -172.269E-03    -165.776E-03     333.526E-03    -167.750E-03     69.2805E-03     355.217E-03     154.121E+06     172.343E+06     77.0521E+06    -4.58635E+06    -3.99495E+06     76.4607E+06     172.343E+06     6.39557E+06
             124     45.0291E-03     15.2451E-03     42.3699E-03     335.106E-03    -163.750E-03    -171.356E-03    -164.863E-03     332.699E-03    -167.836E-03     69.1462E-03     354.382E-03     157.782E+06     164.730E+06     84.8756E+06    -16.9917E+06    -15.4099E+06     83.2938E+06     164.730E+06    -6.08539E+06
             125     46.3386E-03     15.2405E-03     43.7606E-03     353.282E-03    -167.229E-03    -186.053E-03    -183.781E-03     351.010E-03    -167.229E-03     69.0237E-03     372.518E-03     151.459E+06     151.461E+06     61.9074E+06    -22.3463E+06    -20.5131E+06     60.0742E+06     151.461E+06    -5.18766E+06
             126     47.7258E-03     15.2501E-03     45.2237E-03     353.955E-03    -167.081E-03    -186.874E-03    -185.132E-03     352.212E-03    -167.081E-03     61.2478E-03     371.611E-03     149.563E+06     168.513E+06     69.9982E+06    -3.37979E+06    -2.55823E+06     69.1766E+06     168.513E+06     7.71370E+06
             127     49.0611E-03     15.2445E-03     46.6326E-03     336.177E-03    -163.985E-03    -172.192E-03    -166.109E-03     333.811E-03    -167.702E-03     68.3297E-03     354.401E-03     151.558E+06     183.541E+06     85.9325E+06     9.02701E+06     9.57667E+06     85.3829E+06     183.541E+06     6.24464E+06
             128     50.3738E-03     15.2442E-03     48.0118E-03     330.995E-03    -162.996E-03    -167.999E-03    -159.820E-03     327.819E-03    -167.999E-03     78.9132E-03     352.854E-03     151.635E+06     166.380E+06     68.1817E+06    -8.19540E+06    -7.17571E+06     67.1620E+06     166.380E+06    -4.09032E+06
             129     51.6960E-03     15.2422E-03     49.3979E-03     333.881E-03    -165.977E-03    -167.904E-03    -162.805E-03     330.709E-03    -167.904E-03     79.3108E-03     357.525E-03     155.014E+06     168.167E+06     70.0338E+06    -10.5300E+06    -9.44776E+06     68.9515E+06     168.167E+06    -3.45956E+06
             130     53.0367E-03     15.2477E-03     50.7976E-03     333.511E-03    -165.695E-03    -167.816E-03    -162.483E-03     330.299E-03    -167.816E-03     79.7319E-03     356.341E-03     151.546E+06     177.492E+06     82.2351E+06     2.76107E+06     3.41498E+06     81.5812E+06     177.492E+06     6.98439E+06
             131     54.3648E-03     15.2454E-03     52.1834E-03     333.657E-03    -165.806E-03    -167.851E-03    -162.922E-03     330.773E-03    -167.851E-03     75.2105E-03     356.452E-03     151.465E+06     172.999E+06     79.5734E+06    -1.75711E+06    -731.533E+03     78.5478E+06     172.999E+06    -323.966E+03
             132     55.6946E-03     15.2405E-03     53.5688E-03     335.916E-03    -167.424E-03    -168.492E-03    -165.584E-03     333.573E-03    -167.989E-03     68.5533E-03     357.438E-03     155.230E+06     171.179E+06     75.3956E+06    -7.91890E+06    -7.37059E+06     74.8473E+06     171.179E+06    -4.91418E+06
             133     57.0400E-03     15.2396E-03     54.9664E-03     339.380E-03    -167.992E-03    -171.387E-03    -168.629E-03     336.622E-03    -167.992E-03     74.7503E-03     360.753E-03     155.325E+06     166.823E+06     72.8896E+06    -12.4544E+06    -12.2943E+06     72.7295E+06     166.823E+06     2.39017E+06
             134     58.4064E-03     15.2408E-03     56.3829E-03     338.536E-03    -167.641E-03    -170.894E-03    -167.636E-03     335.639E-03    -168.003E-03     76.5569E-03     360.972E-03     150.745E+06     172.173E+06     83.6189E+06    -1.87750E+06    -1.70563E+06     83.4470E+06     172.173E+06     3.34679E+06
             135     59.7405E-03     15.2404E-03     57.7638E-03     337.382E-03    -167.690E-03    -169.692E-03    -166.298E-03     334.350E-03    -168.052E-03     78.0582E-03     359.374E-03     148.074E+06     170.872E+06     85.2610E+06    -108.057E+03     51.1773E+03     85.1017E+06     170.872E+06    -1.75820E+06
             136     61.0995E-03     15.2388E-03     59.1687E-03     339.801E-03    -167.966E-03    -171.835E-03    -168.442E-03     336.408E-03    -167.966E-03     83.0484E-03     361.135E-03     152.318E+06     160.087E+06     71.6482E+06    -15.7927E+06    -15.1669E+06     71.0224E+06     160.087E+06    -7.10069E+06
             137     62.4648E-03     15.2435E-03     60.5763E-03     337.958E-03    -167.827E-03    -170.131E-03    -166.043E-03     333.945E-03    -167.903E-03     89.6691E-03     359.817E-03     156.669E+06     161.460E+06     69.3303E+06    -19.4342E+06    -18.7188E+06     68.6149E+06     161.460E+06    -1.38552E+06
             138     63.8145E-03     15.2452E-03     61.9667E-03     330.617E-03    -162.637E-03    -167.979E-03    -158.941E-03     326.920E-03    -167.979E-03     84.5375E-03     351.919E-03     153.656E+06     176.609E+06     87.7139E+06    -799.697E+03     281.113E+03     86.6331E+06     176.609E+06     9.28442E+06
             139     65.1391E-03     15.2458E-03     63.3298E-03     328.994E-03    -161.090E-03    -167.904E-03    -158.148E-03     326.052E-03    -167.904E-03     75.7141E-03     349.258E-03     149.294E+06     176.977E+06     94.2190E+06     4.64089E+06     6.33654E+06     92.5234E+06     176.977E+06    -72.8315E+03
             140     66.4812E-03     15.2470E-03     64.7092E-03     339.104E-03    -166.055E-03    -173.049E-03    -168.955E-03     336.557E-03    -167.602E-03     71.4096E-03     359.772E-03     153.097E+06     161.948E+06     77.2980E+06    -14.7754E+06    -13.8845E+06     76.4071E+06     161.948E+06    -7.51118E+06
             141     67.8784E-03     15.2419E-03     66.1450E-03     341.348E-03    -167.584E-03    -173.764E-03    -171.076E-03     338.660E-03    -167.584E-03     73.5272E-03     362.135E-03     157.948E+06     174.042E+06     84.8108E+06    -8.32502E+06    -7.17593E+06     83.6617E+06     174.042E+06     5.70210E+06
             142     69.2290E-03     15.2513E-03     67.5281E-03     339.296E-03    -167.537E-03    -171.759E-03    -168.069E-03     335.606E-03    -167.537E-03     86.4712E-03     360.339E-03     152.480E+06     182.598E+06     98.3468E+06     6.60831E+06     7.76452E+06     97.1906E+06     182.598E+06     5.60773E+06
             143     70.6052E-03     15.2466E-03     68.9394E-03     344.660E-03    -167.433E-03    -177.227E-03    -173.959E-03     341.392E-03    -167.433E-03     81.7425E-03     367.325E-03     152.850E+06     176.235E+06     94.3483E+06    -112.246E+03     444.457E+03     93.7916E+06     176.235E+06    -6.43303E+06
             144     71.9776E-03     15.2413E-03     70.3454E-03     342.646E-03    -167.700E-03    -174.945E-03    -172.387E-03     340.087E-03    -167.700E-03     72.5923E-03     365.786E-03     159.277E+06     169.537E+06     83.9832E+06    -14.2357E+06    -13.6166E+06     83.3642E+06     169.537E+06    -2.64638E+06
             145     73.3320E-03     15.2428E-03     71.7303E-03     336.608E-03    -167.772E-03    -168.836E-03    -166.183E-03     334.082E-03    -167.899E-03     71.2744E-03     358.280E-03     153.974E+06     169.896E+06     87.6880E+06    -7.73279E+06    -7.44548E+06     87.4007E+06     169.896E+06     5.17945E+06
             146     74.7007E-03     15.2432E-03     73.1289E-03     337.367E-03    -167.658E-03    -169.709E-03    -166.826E-03     334.610E-03    -167.784E-03     74.4641E-03     357.745E-03     149.711E+06     178.768E+06     99.6662E+06     6.09875E+06     6.29255E+06     99.4724E+06     178.768E+06     1.98532E+06
             147     76.0743E-03     15.2474E-03     74.5306E-03     348.073E-03    -167.436E-03    -180.637E-03    -177.275E-03     344.711E-03    -167.436E-03     84.0160E-03     368.938E-03     155.794E+06     170.077E+06     89.8549E+06    -9.46867E+06    -9.38969E+06     89.7759E+06     170.077E+06    -2.67875E+06
             148     77.4783E-03     15.2420E-03     75.9642E-03     353.175E-03    -167.318E-03    -185.858E-03    -182.728E-03     350.045E-03    -167.318E-03     81.6467E-03     374.583E-03     160.226E+06     168.091E+06     88.5608E+06    -16.3376E+06    -16.1399E+06     88.3632E+06     168.091E+06     862.862E+03
             149     80.2172E-03     15.2443E-03     78.7554E-03     330.443E-03    -162.417E-03    -168.026E-03    -158.820E-03     326.845E-03    -168.026E-03     83.8681E-03     354.415E-03     156.567E+06     181.703E+06     103.369E+06     1.47709E+06     1.89773E+06     102.949E+06     181.703E+06     1.75236E+06
             150     81.5749E-03     15.2436E-03     80.1380E-03     329.616E-03    -161.483E-03    -168.133E-03    -158.665E-03     326.797E-03    -168.133E-03     73.8336E-03     353.200E-03     162.058E+06     176.237E+06     101.973E+06    -9.62008E+06    -9.15866E+06     101.511E+06     176.237E+06     1.10120E+06
             151     82.9281E-03     15.2398E-03     81.5158E-03     330.962E-03    -162.754E-03    -168.208E-03    -159.971E-03     328.179E-03    -168.208E-03     73.6218E-03     353.615E-03     167.687E+06     181.736E+06     110.684E+06    -9.75727E+06    -9.59585E+06     110.523E+06     181.736E+06    -2.15321E+06
             152     84.3037E-03     15.2425E-03     82.9143E-03     334.346E-03    -166.255E-03    -168.091E-03    -163.318E-03     331.409E-03    -168.091E-03     76.2869E-03     356.577E-03     165.729E+06     181.858E+06     113.244E+06    -7.15554E+06    -7.13401E+06     113.223E+06     181.858E+06     1.60900E+06
             153     85.6717E-03     15.2421E-03     84.3050E-03     333.176E-03    -165.195E-03    -167.981E-03    -162.454E-03     330.435E-03    -167.981E-03     73.6582E-03     354.603E-03     161.968E+06     181.642E+06     115.351E+06    -2.94509E+06    -2.93398E+06     115.340E+06     181.642E+06     840.207E+03
             154     87.0364E-03     15.2474E-03     85.6904E-03     335.885E-03    -165.415E-03    -170.470E-03    -164.760E-03     332.549E-03    -167.789E-03     81.6174E-03     358.299E-03     165.593E+06     182.737E+06     117.294E+06    -5.57692E+06    -5.54216E+06     117.259E+06     182.737E+06     1.51296E+06
             155     88.4308E-03     15.2456E-03     87.1067E-03     344.672E-03    -167.563E-03    -177.110E-03    -173.350E-03     340.912E-03    -167.563E-03     88.2657E-03     368.721E-03     169.516E+06     190.135E+06     124.780E+06    -2.32561E+06    -2.28969E+06     124.744E+06     190.135E+06     1.75128E+06
             156     89.8220E-03     15.2447E-03     88.5189E-03     342.499E-03    -167.722E-03    -174.778E-03    -171.497E-03     339.219E-03    -167.722E-03     81.9658E-03     364.493E-03     168.427E+06     191.940E+06     125.589E+06     462.074E+03     463.717E+03     125.588E+06     191.940E+06     108.612E+03
             157     91.1853E-03     15.2419E-03     89.9024E-03     333.395E-03    -165.158E-03    -168.237E-03    -162.326E-03     330.373E-03    -168.047E-03     77.3260E-03     353.924E-03     167.547E+06     185.954E+06     120.390E+06    -4.43378E+06    -4.43321E+06     120.389E+06     185.954E+06    -249.771E+03
             158     92.5464E-03     15.2436E-03     91.2823E-03     330.237E-03    -162.129E-03    -168.108E-03    -159.266E-03     327.374E-03    -168.108E-03     74.7069E-03     351.410E-03     171.178E+06     180.162E+06     112.774E+06    -14.4216E+06    -14.3598E+06     112.712E+06     180.162E+06    -2.05402E+06
             159     93.9148E-03     15.2447E-03     92.6693E-03     328.430E-03    -160.417E-03    -168.012E-03    -157.627E-03     325.639E-03    -168.012E-03     73.5305E-03     349.042E-03     177.232E+06     187.001E+06     114.991E+06    -14.8969E+06    -14.7330E+06     114.827E+06     187.001E+06     639.274E+03
             160     95.2824E-03     15.2515E-03     94.0539E-03     329.064E-03    -161.225E-03    -167.840E-03    -157.924E-03     325.764E-03    -167.840E-03     80.1563E-03     348.667E-03     180.684E+06     203.244E+06     132.923E+06    -2.02103E+06    -1.09026E+06     131.992E+06     203.244E+06     10.0794E+06
             161     96.6610E-03     15.2493E-03     95.4506E-03     339.658E-03    -165.387E-03    -174.271E-03    -168.115E-03     335.612E-03    -167.497E-03     90.5304E-03     360.742E-03     179.575E+06     205.302E+06     140.588E+06     2.36811E+06     3.51003E+06     139.446E+06     205.302E+06     2.79319E+06
             162     98.0560E-03     15.2500E-03     96.8629E-03     350.075E-03    -167.167E-03    -182.907E-03    -179.176E-03     346.343E-03    -167.167E-03     88.2252E-03     372.626E-03     182.209E+06     192.581E+06     129.869E+06    -12.7005E+06    -12.2014E+06     129.370E+06     192.581E+06    -8.33974E+06
             163     99.4444E-03     15.2496E-03     98.2682E-03     344.335E-03    -167.164E-03    -177.172E-03    -174.378E-03     341.541E-03    -167.164E-03     76.1392E-03     364.984E-03     186.433E+06     200.132E+06     136.943E+06    -9.67777E+06    -8.85619E+06     136.121E+06     200.132E+06     3.17147E+06
             164     100.828E-03     15.2586E-03     99.6663E-03     330.798E-03    -162.512E-03    -168.286E-03    -160.656E-03     327.900E-03    -167.244E-03     75.4076E-03     350.614E-03     184.392E+06     203.103E+06     140.823E+06    -4.36049E+06    -3.72330E+06     140.186E+06     203.103E+06     7.13825E+06
             165     102.187E-03     15.2598E-03     101.041E-03     322.798E-03    -155.570E-03    -167.228E-03    -152.873E-03     320.100E-03    -167.228E-03     71.4822E-03     342.717E-03     185.508E+06     210.079E+06     144.434E+06     680.423E+03     821.370E+03     144.293E+06     210.079E+06    -2.88067E+06
             166     103.537E-03     15.2640E-03     102.405E-03     321.717E-03    -154.638E-03    -167.079E-03    -152.392E-03     319.471E-03    -167.079E-03     65.2433E-03     341.899E-03     192.099E+06     220.436E+06     156.038E+06     4.47100E+06     4.62402E+06     155.885E+06     220.436E+06    -2.15655E+06
             167     104.901E-03     15.2657E-03     103.784E-03     324.192E-03    -157.318E-03    -166.873E-03    -155.389E-03     322.262E-03    -166.873E-03     60.7077E-03     344.094E-03     197.683E+06     210.111E+06     151.704E+06    -10.1804E+06    -10.1636E+06     151.687E+06     210.111E+06     491.339E+03
             168     106.278E-03     15.2638E-03     105.176E-03     335.594E-03    -162.684E-03    -172.910E-03    -166.551E-03     333.274E-03    -166.723E-03     67.7747E-03     355.564E-03     196.781E+06     204.320E+06     150.573E+06    -13.7433E+06    -13.7280E+06     150.558E+06     204.320E+06    -1.51832E+06
             169     107.671E-03     15.2553E-03     106.584E-03     357.657E-03    -166.377E-03    -191.280E-03    -188.576E-03     354.952E-03    -166.377E-03     76.6904E-03     377.480E-03     190.501E+06     196.463E+06     150.047E+06    -12.9252E+06    -12.9122E+06     150.034E+06     196.463E+06    -1.28727E+06
             170     109.104E-03     15.2553E-03     108.032E-03     363.365E-03    -166.063E-03    -197.302E-03    -194.656E-03     360.720E-03    -166.063E-03     76.7604E-03     381.502E-03     196.274E+06     207.074E+06     166.206E+06    -6.40109E+06    -6.21094E+06     166.016E+06     207.074E+06     3.83765E+06
             171     110.522E-03     15.2731E-03     109.461E-03     346.694E-03    -166.148E-03    -180.546E-03    -177.951E-03     344.100E-03    -166.148E-03     73.7640E-03     365.456E-03     202.574E+06     220.731E+06     173.101E+06    -1.27765E+06    -1.08209E+06     172.905E+06     220.731E+06     3.40341E+06
             172     111.904E-03     15.2640E-03     110.858E-03     327.443E-03    -159.054E-03    -168.389E-03    -158.118E-03     324.631E-03    -166.513E-03     73.5261E-03     348.784E-03     204.093E+06     223.888E+06     168.143E+06    -2.28444E+06    -2.13676E+06     167.995E+06     223.888E+06     2.76295E+06
             173     113.255E-03     15.2786E-03     112.220E-03     317.954E-03    -151.482E-03    -166.472E-03    -147.892E-03     314.364E-03    -166.472E-03     81.6983E-03     341.633E-03     209.289E+06     227.583E+06     177.263E+06    -2.20806E+06    -2.03537E+06     177.090E+06     227.583E+06     1.79384E+06
             174     114.607E-03     15.2798E-03     113.584E-03     322.723E-03    -156.766E-03    -165.957E-03    -153.407E-03     319.364E-03    -165.957E-03     79.6238E-03     347.001E-03     211.331E+06     230.425E+06     183.442E+06    -433.517E+03    -399.810E+03     183.409E+06     230.425E+06    -1.26206E+06
             175     115.991E-03     15.2841E-03     114.980E-03     326.481E-03    -160.874E-03    -165.607E-03    -158.066E-03     323.672E-03    -165.607E-03     73.7788E-03     350.534E-03     212.417E+06     226.849E+06     179.527E+06    -5.23001E+06    -5.18548E+06     179.482E+06     226.849E+06    -1.54276E+06
             176     117.346E-03     15.2867E-03     116.346E-03     329.130E-03    -162.322E-03    -166.808E-03    -160.875E-03     326.269E-03    -165.394E-03     74.8826E-03     351.807E-03     210.778E+06     222.951E+06     176.838E+06    -7.06197E+06    -6.40641E+06     176.183E+06     222.951E+06     5.43773E+06
             177     118.740E-03     15.2847E-03     117.752E-03     334.580E-03    -165.258E-03    -169.322E-03    -166.506E-03     331.764E-03    -165.258E-03     75.1220E-03     357.644E-03     210.218E+06     210.765E+06     183.240E+06    -11.1562E+06    -9.86868E+06     181.952E+06     210.765E+06    -915.557E+03
             178     120.126E-03     15.2808E-03     119.150E-03     335.167E-03    -165.251E-03    -169.916E-03    -166.831E-03     332.082E-03    -165.251E-03     78.5628E-03     361.323E-03     211.788E+06     198.351E+06     178.520E+06    -22.4080E+06    -21.3996E+06     177.512E+06     198.351E+06    -2.65755E+06
             179     121.488E-03     15.2882E-03     120.522E-03     338.318E-03    -164.996E-03    -173.322E-03    -169.955E-03     334.951E-03    -164.996E-03     82.7263E-03     363.681E-03     210.069E+06     213.512E+06     174.325E+06    -13.2740E+06    -12.8553E+06     173.907E+06     213.512E+06     2.91541E+06
             180     122.905E-03     15.2921E-03     121.950E-03     334.320E-03    -163.220E-03    -171.100E-03    -166.636E-03     331.425E-03    -164.789E-03     76.0578E-03     356.168E-03     211.210E+06     228.108E+06     182.580E+06    -2.14644E+06    -1.95165E+06     182.385E+06     228.108E+06     449.277E+03
             181     124.264E-03     15.2982E-03     123.319E-03     322.572E-03    -157.716E-03    -164.856E-03    -154.771E-03     319.627E-03    -164.856E-03     74.7177E-03     344.668E-03     210.327E+06     230.908E+06     188.846E+06     2.73276E+06     2.98084E+06     188.598E+06     230.908E+06    -341.467E+03
             182     125.620E-03     15.2990E-03     124.685E-03     321.713E-03    -156.978E-03    -164.735E-03    -153.936E-03     318.671E-03    -164.735E-03     75.9167E-03     343.940E-03     207.438E+06     223.937E+06     183.468E+06    -753.351E+03    -590.980E+03     183.306E+06     223.937E+06    -5.05792E+06
             183     127.002E-03     15.2991E-03     126.077E-03     326.929E-03    -162.343E-03    -164.586E-03    -159.157E-03     323.686E-03    -164.530E-03     79.1496E-03     350.545E-03     204.224E+06     215.175E+06     172.676E+06    -6.94521E+06    -6.92071E+06     172.651E+06     215.175E+06    -1.37820E+06
             184     128.372E-03     15.3010E-03     127.457E-03     326.273E-03    -161.732E-03    -164.541E-03    -158.881E-03     323.365E-03    -164.485E-03     74.2886E-03     350.481E-03     203.048E+06     216.828E+06     167.576E+06    -6.27283E+06    -6.25911E+06     167.563E+06     216.828E+06    -962.928E+03
             185     129.732E-03     15.3023E-03     128.826E-03     325.371E-03    -160.927E-03    -164.445E-03    -158.564E-03     323.009E-03    -164.445E-03     67.4729E-03     348.344E-03     201.243E+06     216.729E+06     162.208E+06    -6.15467E+06    -6.13214E+06     162.185E+06     216.729E+06    -1.93989E+06
             186     131.108E-03     15.3034E-03     130.211E-03     331.758E-03    -163.462E-03    -168.296E-03    -164.873E-03     329.101E-03    -164.228E-03     72.6478E-03     354.328E-03     192.115E+06     205.838E+06     153.877E+06    -6.90975E+06    -6.84789E+06     153.815E+06     205.838E+06    -2.89959E+06
             187     132.511E-03     15.3044E-03     131.624E-03     336.700E-03    -164.080E-03    -172.620E-03    -169.760E-03     333.840E-03    -164.080E-03     76.0542E-03     359.110E-03     181.928E+06     197.877E+06     147.567E+06    -3.89871E+06    -3.83848E+06     147.507E+06     197.877E+06    -1.31406E+06
             188     133.889E-03     15.3053E-03     133.011E-03     340.294E-03    -164.000E-03    -176.294E-03    -173.089E-03     337.089E-03    -164.000E-03     81.1244E-03     363.712E-03     179.936E+06     192.575E+06     143.221E+06    -6.86955E+06    -6.80770E+06     143.160E+06     192.575E+06    -1.32693E+06
             189     135.296E-03     15.3057E-03     134.428E-03     350.962E-03    -163.744E-03    -187.218E-03    -182.999E-03     346.742E-03    -163.744E-03     94.5011E-03     374.906E-03     172.311E+06     186.323E+06     136.951E+06    -5.22326E+06    -5.16818E+06     136.896E+06     186.323E+06    -2.24554E+06
             190     136.730E-03     15.3068E-03     135.870E-03     359.820E-03    -163.540E-03    -196.279E-03    -190.953E-03     354.494E-03    -163.540E-03     108.307E-03     385.221E-03     163.134E+06     175.846E+06     126.260E+06    -6.31399E+06    -6.12776E+06     126.074E+06     175.846E+06    -3.73769E+06
             191     138.150E-03     15.3069E-03     137.299E-03     356.718E-03    -163.618E-03    -193.100E-03    -187.920E-03     351.538E-03    -163.618E-03     106.201E-03     383.143E-03     149.591E+06     164.226E+06     114.030E+06    -3.84468E+06    -3.65896E+06     113.844E+06     164.226E+06    -3.50037E+06
             192     139.533E-03     15.3077E-03     138.691E-03     352.497E-03    -163.696E-03    -188.802E-03    -184.580E-03     348.275E-03    -163.696E-03     94.9739E-03     376.855E-03     140.415E+06     152.338E+06     101.197E+06    -6.43749E+06    -6.00209E+06     100.762E+06     152.338E+06    -4.94736E+06
             193     140.934E-03     15.3074E-03     140.100E-03     359.120E-03    -163.487E-03    -195.633E-03    -192.072E-03     355.559E-03    -163.487E-03     88.5927E-03     380.645E-03     129.999E+06     145.675E+06     87.2819E+06    -2.28556E+06    -1.75969E+06      86.756E+06     145.675E+06    -3.30042E+06
             194     142.371E-03     15.3084E-03     141.546E-03     370.110E-03    -163.203E-03    -206.907E-03    -203.176E-03     366.379E-03    -163.203E-03     92.4774E-03     391.259E-03     127.361E+06     139.225E+06     74.8838E+06    -7.07265E+06    -6.56613E+06     74.3772E+06     139.225E+06    -2.85326E+06
             195     143.821E-03     15.3079E-03     143.004E-03     377.817E-03    -163.048E-03    -214.768E-03    -210.160E-03     373.208E-03    -163.048E-03     103.873E-03     400.215E-03     122.410E+06     137.429E+06     68.1314E+06    -2.22493E+06    -1.32130E+06     67.2278E+06     137.429E+06    -1.44591E+06
             196     145.277E-03     15.3095E-03     144.468E-03     380.882E-03    -162.992E-03    -217.890E-03    -212.809E-03     375.801E-03    -162.992E-03     109.823E-03     404.660E-03     119.735E+06     127.399E+06     54.9882E+06    -9.69259E+06    -6.97021E+06     52.2658E+06     127.399E+06    -6.61204E+06
             197     146.712E-03     15.3087E-03     145.912E-03     376.547E-03    -163.041E-03    -213.506E-03    -209.217E-03     372.259E-03    -163.041E-03     100.041E-03     399.831E-03     111.709E+06     115.206E+06     43.4071E+06    -10.8880E+06     357.838E+03     32.1612E+06     115.206E+06    -6.98887E+06
             198     148.139E-03     15.3113E-03     147.346E-03     369.025E-03    -163.207E-03    -205.818E-03    -202.328E-03     365.535E-03    -163.207E-03     89.2849E-03     391.407E-03     112.229E+06     119.142E+06     35.1060E+06    -7.39839E+06     1.71296E+06     25.9947E+06     119.142E+06     4.53211E+06
             199     149.566E-03     15.3080E-03     148.781E-03     358.742E-03    -163.435E-03    -195.307E-03    -192.199E-03     355.635E-03    -163.435E-03     82.7437E-03     382.801E-03     119.004E+06     110.909E+06     26.3112E+06    -24.9895E+06    -8.37143E+06     9.69309E+06     110.909E+06     7.71575E+06
             200     150.968E-03     15.3140E-03     150.190E-03     346.838E-03    -163.714E-03    -183.124E-03    -179.742E-03     343.456E-03    -163.714E-03     84.1492E-03     371.137E-03     104.725E+06     91.6784E+06     26.7702E+06    -27.8808E+06    -6.57788E+06     5.46723E+06     91.6784E+06    -6.31654E+06
             201     152.372E-03     15.3107E-03     151.601E-03     332.176E-03    -160.950E-03    -171.227E-03    -164.605E-03     328.699E-03    -164.094E-03     83.0802E-03     355.055E-03     89.3130E+06     82.3885E+06     46.6169E+06    -18.7878E+06     15.1206E+06     12.7084E+06     82.3885E+06    -9.46364E+06
             202     153.736E-03     15.3158E-03     152.971E-03     277.785E-03    -112.253E-03    -165.532E-03    -109.836E-03     275.368E-03    -165.532E-03     61.1879E-03     310.041E-03     87.9065E+06     71.8418E+06     59.1149E+06    -21.4139E+06     7.99482E+06     33.1985E+06     68.3495E+06    -1.17622E+06
             203     154.743E-03     14.3119E-03     154.079E-03     238.676E-03    -69.4353E-03    -169.241E-03    -68.4156E-03     237.657E-03    -169.241E-03     12.5347E-03     276.637E-03     104.560E+06     37.9713E+06     7.97441E+06    -76.1129E+06    -43.1610E+06    -21.4851E+06     34.4790E+06    -6.94761E+06
             204     154.493E-03     13.3593E-03     153.914E-03     251.981E-03    -77.9052E-03    -174.075E-03    -76.4463E-03     250.522E-03    -174.075E-03    -39.8262E-03     281.954E-03     99.3409E+06     51.7339E+06     14.3875E+06    -59.9598E+06    -27.1487E+06    -18.4236E+06     51.7339E+06    -5.45196E+06
             205     154.192E-03     12.4453E-03     153.689E-03     265.272E-03    -86.5988E-03    -178.673E-03    -82.1579E-03     260.831E-03    -178.673E-03    -76.9232E-03     288.629E-03     94.7296E+06     75.6147E+06     28.3070E+06    -29.6365E+06    -13.1725E+06     11.8430E+06     75.6147E+06    -4.33961E+06
             206     153.931E-03     11.5375E-03     153.498E-03     285.269E-03    -102.340E-03    -182.929E-03    -94.5437E-03     277.473E-03    -182.929E-03    -108.608E-03     304.438E-03     96.7681E+06     87.3457E+06     10.0109E+06    -21.1208E+06    -3.10902E+06    -8.00085E+06     87.3457E+06    -6.56960E+06
             207     153.669E-03     10.6686E-03     153.298E-03     308.472E-03    -122.038E-03    -186.434E-03    -111.916E-03     298.350E-03    -186.434E-03    -130.430E-03     323.820E-03     107.784E+06     107.234E+06     16.6153E+06    -11.9144E+06     3.22275E+06     1.47822E+06     107.234E+06     -7.2474E+06
             208     153.428E-03     9.81488E-03     153.114E-03     323.784E-03    -134.491E-03    -189.293E-03    -124.160E-03     313.453E-03    -189.293E-03    -135.927E-03     336.087E-03     112.276E+06     111.250E+06     16.3010E+06    -12.6522E+06     4.87791E+06    -1.22911E+06     111.250E+06    -9.25734E+06
             209     153.211E-03     8.97642E-03     152.947E-03     337.530E-03    -145.644E-03    -191.886E-03    -136.492E-03     328.378E-03    -191.886E-03    -131.591E-03     346.868E-03     111.248E+06     110.717E+06     18.8504E+06    -12.9698E+06     4.20225E+06     1.67841E+06     110.717E+06    -13.6579E+06
             210     153.016E-03     8.13676E-03     152.800E-03     352.938E-03    -158.776E-03    -194.162E-03    -149.859E-03     344.020E-03    -194.162E-03    -133.920E-03     359.814E-03     114.175E+06     111.700E+06     15.3265E+06    -14.3142E+06     6.00127E+06    -4.98895E+06     111.700E+06    -13.3421E+06
             211     152.854E-03     7.30484E-03     152.679E-03     366.898E-03    -171.086E-03    -195.813E-03    -162.616E-03     358.429E-03    -195.813E-03    -133.714E-03     371.802E-03     107.786E+06     110.273E+06     14.6942E+06    -6.49848E+06     6.69349E+06     1.50219E+06     110.273E+06    -10.1445E+06
             212     152.688E-03     6.48447E-03     152.550E-03     375.194E-03    -178.346E-03    -196.848E-03    -171.522E-03     368.371E-03    -196.848E-03    -121.873E-03     378.590E-03     99.2145E+06     97.4776E+06     17.6625E+06    -12.4796E+06     9.44337E+06    -4.26046E+06     97.4776E+06    -13.4204E+06
             213     152.545E-03     5.67131E-03     152.440E-03     379.932E-03    -182.139E-03    -197.793E-03    -176.436E-03     374.229E-03    -197.793E-03    -112.621E-03     382.293E-03     93.4608E+06     92.6900E+06     27.0608E+06    -14.3157E+06     18.3234E+06    -5.57830E+06     92.6900E+06    -16.6114E+06
             214     152.429E-03     4.85057E-03     152.352E-03     386.847E-03    -188.151E-03    -198.696E-03    -183.349E-03     382.045E-03    -198.696E-03    -104.349E-03     388.300E-03     81.3681E+06     80.9387E+06     33.0661E+06    -12.1876E+06     26.0256E+06    -5.14702E+06     80.9387E+06    -16.3981E+06
             215     152.347E-03     4.04251E-03     152.294E-03     395.867E-03    -195.710E-03    -200.156E-03    -193.624E-03     392.565E-03    -198.941E-03    -87.3827E-03     396.755E-03     73.6017E+06     70.9927E+06     45.0090E+06    -11.8214E+06     37.0808E+06    -3.89323E+06     70.9927E+06    -19.6264E+06
             216     152.277E-03     3.24574E-03     152.242E-03     399.004E-03    -198.334E-03    -200.670E-03    -198.821E-03     397.155E-03    -198.334E-03    -65.6210E-03     399.524E-03     83.3409E+06     76.0371E+06     54.2663E+06    -16.0282E+06     49.2036E+06    -10.9655E+06     76.0371E+06    -17.1131E+06
             217     152.224E-03     2.43331E-03     152.204E-03     395.564E-03    -196.901E-03    -198.663E-03    -197.137E-03     394.680E-03    -197.543E-03    -44.7211E-03     395.924E-03     77.2536E+06     76.5335E+06     61.3271E+06    -7.02012E+06     62.3001E+06    -4.75994E+06     73.3002E+06    -12.5160E+06
             218     152.175E-03     1.62649E-03     152.166E-03     394.153E-03    -196.655E-03    -197.498E-03    -196.527E-03     393.825E-03    -197.297E-03    -26.6253E-03     394.601E-03     81.3868E+06     81.3696E+06     71.4276E+06    -4.52546E+06     79.5417E+06    -2.69756E+06     71.4276E+06    -12.2118E+06
             219     152.184E-03     826.419E-06     152.181E-03     395.370E-03    -194.287E-03    -201.083E-03    -200.989E-03     395.276E-03    -194.287E-03    -14.4180E-03     397.231E-03     111.131E+06     96.6425E+06     88.2523E+06    -18.3305E+06     93.6719E+06    -17.0413E+06     89.9337E+06    -11.8291E+06
             220     150.732E-03    -80.4546E-09     150.732E-03     387.890E-03    -187.276E-03    -200.614E-03    -193.811E-03     387.830E-03    -194.018E-03    -11.6958E-03     390.063E-03     95.3161E+06     45.7084E+06     42.0647E+06    -51.3704E+06     42.7353E+06    -50.0786E+06     43.7461E+06    -10.5962E+06
             221     149.206E-03    -11.6294E-06     149.206E-03     352.914E-03    -172.015E-03    -180.899E-03    -174.108E-03     352.866E-03    -178.758E-03    -3.40876E-03     353.811E-03     38.8367E+06    -60.9305E+06    -63.3979E+06    -100.936E+06    -63.4360E+06    -98.4310E+06    -63.3979E+06    -7.53711E+06
             222     147.818E-03     15.6221E-06     147.818E-03     304.165E-03    -148.715E-03    -155.450E-03    -155.426E-03     304.141E-03    -148.715E-03     6.51201E-03     304.728E-03     17.8285E+06    -132.177E+06    -144.828E+06    -151.329E+06    -144.931E+06    -136.028E+06    -147.375E+06    -5.59279E+06
             223     146.542E-03    -8.25006E-06     146.542E-03     277.192E-03    -134.524E-03    -142.668E-03    -139.021E-03     277.095E-03    -138.075E-03    -4.83777E-03     277.968E-03     40.8931E+06    -173.854E+06    -208.206E+06    -219.018E+06    -215.365E+06    -174.959E+06    -210.752E+06    -4.55413E+06
             224     145.224E-03     1.43152E-06     145.224E-03     272.486E-03    -132.985E-03    -139.501E-03    -132.898E-03     272.399E-03    -139.501E-03    -9.84078E-03     273.523E-03     63.1893E+06    -206.794E+06    -259.386E+06    -276.871E+06    -267.099E+06    -207.345E+06    -268.605E+06    -5.02635E+06
             225     143.891E-03    -7.05816E-06     143.891E-03     269.345E-03    -133.002E-03    -136.343E-03    -133.372E-03     269.339E-03    -135.967E-03    -327.667E-06     270.259E-03     46.7356E+06    -202.018E+06    -240.525E+06    -253.934E+06    -240.080E+06    -214.773E+06    -241.624E+06    -3.38862E+06
             226     142.578E-03     7.29851E-06     142.578E-03     263.205E-03    -130.851E-03    -132.354E-03    -132.239E-03     263.090E-03    -130.851E-03     10.7150E-03     263.990E-03     37.8792E+06    -166.097E+06    -181.741E+06    -208.411E+06    -174.321E+06    -208.307E+06    -173.620E+06    -555.862E+03
             227     141.282E-03    -6.03756E-06     141.282E-03     259.512E-03    -128.515E-03    -130.997E-03    -129.526E-03     259.395E-03    -129.869E-03     11.1779E-03     260.303E-03     66.5108E+06    -133.981E+06    -146.106E+06    -205.556E+06    -138.931E+06    -205.207E+06    -141.504E+06     2.29830E+06
             228     139.994E-03     3.52583E-06     139.994E-03     261.098E-03    -127.826E-03    -133.272E-03    -131.876E-03     261.055E-03    -129.180E-03     7.34982E-03     261.859E-03      78.076E+06    -120.390E+06    -126.512E+06    -201.303E+06    -125.479E+06    -200.815E+06    -121.911E+06     732.627E+03
             229     138.692E-03     3.26554E-06     138.692E-03     267.549E-03    -131.584E-03    -135.965E-03    -135.602E-03     267.474E-03    -131.872E-03     10.9777E-03     268.517E-03     85.1621E+06    -121.398E+06    -123.401E+06    -207.537E+06    -121.587E+06    -207.348E+06    -123.401E+06    -3.36489E+06
             230     137.375E-03    -4.01438E-06     137.375E-03     271.330E-03    -135.438E-03    -135.892E-03    -135.516E-03     271.242E-03    -135.726E-03     11.8929E-03     272.208E-03     89.3340E+06    -128.538E+06    -129.806E+06    -218.499E+06    -129.340E+06    -218.484E+06    -129.020E+06    -323.014E+03
             231     136.058E-03     3.91869E-06     136.058E-03     274.817E-03    -135.443E-03    -139.374E-03    -139.230E-03     274.672E-03    -135.443E-03     15.3089E-03     275.582E-03     93.5823E+06    -133.535E+06    -134.682E+06    -227.685E+06    -134.455E+06    -227.551E+06    -133.896E+06    -2.16792E+06
             232     134.742E-03     2.00660E-06     134.742E-03     282.450E-03    -138.808E-03    -143.642E-03    -143.524E-03     282.331E-03    -138.808E-03     13.5239E-03     283.327E-03     100.956E+06    -140.078E+06    -141.689E+06    -241.827E+06    -140.222E+06    -241.683E+06    -141.689E+06    -3.41270E+06
             233     133.423E-03    -697.828E-09     133.423E-03     289.811E-03    -143.527E-03    -146.284E-03    -144.570E-03     289.785E-03    -145.215E-03     4.51999E-03     290.631E-03     105.309E+06    -146.977E+06    -149.437E+06    -253.494E+06    -148.211E+06    -253.471E+06    -148.226E+06    -1.55489E+06
             234     132.082E-03    -2.60302E-06     132.082E-03     299.948E-03    -148.521E-03    -151.426E-03    -148.498E-03     299.924E-03    -151.426E-03     4.49511E-03     300.752E-03     111.157E+06    -150.517E+06    -151.964E+06    -262.387E+06    -152.053E+06    -262.298E+06    -150.517E+06    -2.81704E+06
             235     130.719E-03     290.659E-09     130.719E-03     314.333E-03    -155.669E-03    -158.664E-03    -155.644E-03     314.309E-03    -158.664E-03     5.14357E-03     315.220E-03     114.274E+06    -155.791E+06    -157.566E+06    -270.937E+06    -156.117E+06    -270.848E+06    -157.329E+06    -1.33581E+06
             236     129.345E-03    -3.63411E-06     129.345E-03     322.806E-03    -159.853E-03    -162.952E-03    -161.164E-03     322.795E-03    -161.631E-03    -2.70914E-03     323.824E-03     111.826E+06    -156.956E+06    -160.359E+06    -270.444E+06    -158.832E+06    -270.433E+06    -158.494E+06     967.480E+03
             237     127.967E-03     5.66126E-06     127.967E-03     327.014E-03    -162.168E-03    -164.846E-03    -163.461E-03     326.986E-03    -163.525E-03     1.05737E-03     327.774E-03     111.891E+06    -160.447E+06    -163.962E+06    -274.053E+06    -162.394E+06    -273.971E+06    -162.097E+06    -1.99352E+06
             238     126.559E-03    -8.12930E-06     126.559E-03     335.350E-03    -166.933E-03    -168.417E-03    -166.909E-03     335.326E-03    -168.417E-03     6.62492E-03     336.159E-03     120.933E+06    -160.709E+06    -164.124E+06    -283.313E+06    -162.612E+06    -283.176E+06    -162.358E+06    -329.341E+03
             239     125.163E-03     7.59844E-06     125.163E-03     340.390E-03    -169.648E-03    -170.742E-03    -169.617E-03     340.359E-03    -170.742E-03     7.46908E-03     341.194E-03     127.859E+06    -159.299E+06    -162.327E+06    -288.644E+06    -161.278E+06    -288.431E+06    -160.561E+06    -1.34707E+06
             240     123.740E-03    -9.63460E-06     123.740E-03     331.922E-03    -164.066E-03    -167.856E-03    -166.862E-03     331.895E-03    -165.033E-03     6.63691E-03     332.644E-03     132.383E+06    -161.653E+06    -163.724E+06    -295.059E+06    -162.679E+06    -294.842E+06    -162.916E+06    -1.21195E+06
             241     122.363E-03     14.1166E-06     122.363E-03     323.260E-03    -157.857E-03    -165.403E-03    -165.357E-03     323.214E-03    -157.857E-03     8.07969E-03     324.095E-03     140.565E+06    -159.705E+06    -162.361E+06    -301.577E+06    -160.775E+06    -301.317E+06    -161.552E+06    -1.86000E+06
             242     121.005E-03    -6.66324E-06     121.005E-03     325.332E-03    -158.661E-03    -166.671E-03    -163.339E-03     325.288E-03    -161.949E-03     5.63520E-03     326.055E-03     151.677E+06    -156.206E+06    -158.424E+06    -308.974E+06    -156.832E+06    -308.719E+06    -158.053E+06    -1.79973E+06
             243     119.599E-03     785.818E-09     119.599E-03     328.886E-03    -162.082E-03    -166.804E-03    -162.063E-03     328.867E-03    -166.804E-03     3.31916E-03     329.539E-03     155.988E+06    -154.522E+06    -155.239E+06    -310.867E+06    -155.301E+06    -310.805E+06    -154.522E+06     2.85587E+06
             244     118.215E-03    -3.47993E-06     118.215E-03     327.697E-03    -161.866E-03    -165.831E-03    -164.371E-03     327.671E-03    -163.300E-03     1.33007E-03     328.388E-03     154.598E+06    -152.149E+06    -153.713E+06    -307.521E+06    -153.733E+06    -307.501E+06    -152.149E+06    -141.394E+03
             245     116.834E-03     7.64975E-06     116.834E-03     327.330E-03    -161.153E-03    -166.177E-03    -166.156E-03     327.309E-03    -161.153E-03     636.261E-06     328.023E-03     155.702E+06    -149.387E+06    -153.568E+06    -307.130E+06    -150.617E+06    -307.118E+06    -152.350E+06    -843.302E+03
             246     115.447E-03    -3.73925E-06     115.447E-03     330.994E-03    -162.201E-03    -168.793E-03    -164.678E-03     330.978E-03    -166.300E-03     1.84414E-03     331.686E-03     159.590E+06    -141.455E+06    -145.616E+06    -303.077E+06    -141.575E+06    -302.957E+06    -145.616E+06     3.20968E+06
             247     114.049E-03    -3.64848E-06     114.049E-03     329.808E-03    -161.403E-03    -168.404E-03    -161.391E-03     329.795E-03    -168.404E-03    -4.71799E-03     330.533E-03     158.483E+06    -130.771E+06    -138.825E+06    -293.047E+06    -137.775E+06    -292.899E+06    -131.969E+06     1.65202E+06
             248     112.671E-03    -1.52642E-06     112.671E-03     327.311E-03    -161.672E-03    -165.638E-03    -162.721E-03     327.295E-03    -164.574E-03    -580.327E-06     327.932E-03     157.048E+06    -130.830E+06    -146.130E+06    -294.963E+06    -137.716E+06    -294.933E+06    -139.274E+06    -1.17280E+06
             249     111.262E-03     2.81237E-06     111.262E-03     328.975E-03    -163.242E-03    -165.734E-03    -165.685E-03     328.926E-03    -163.242E-03     8.97714E-03     329.809E-03     158.650E+06    -127.811E+06    -143.084E+06    -293.539E+06    -134.655E+06    -293.524E+06    -136.255E+06     1.34051E+06
             250     109.874E-03    -754.567E-09     109.874E-03     330.861E-03    -164.531E-03    -166.330E-03    -166.283E-03     330.813E-03    -164.531E-03     8.71159E-03     331.648E-03     156.887E+06    -131.582E+06    -140.117E+06    -292.503E+06    -138.558E+06    -292.356E+06    -133.289E+06    -2.16249E+06
             251     108.501E-03     1.15628E-06     108.501E-03     337.648E-03    -168.095E-03    -169.553E-03    -168.435E-03     337.616E-03    -169.181E-03     7.47968E-03     338.208E-03     171.646E+06    -135.942E+06    -138.052E+06    -308.628E+06    -136.075E+06    -308.495E+06    -138.052E+06    -3.56523E+06
             252     107.068E-03    -3.38741E-06     107.068E-03     337.090E-03    -167.380E-03    -169.710E-03    -168.596E-03     337.061E-03    -168.465E-03     6.36204E-03     337.780E-03     194.500E+06    -119.246E+06    -122.033E+06    -315.118E+06    -121.645E+06    -315.102E+06    -119.650E+06    -1.55539E+06
             253     105.676E-03     5.41885E-06     105.676E-03     326.296E-03    -161.404E-03    -164.892E-03    -164.859E-03     326.263E-03    -161.404E-03     6.66351E-03     326.949E-03     194.013E+06    -113.946E+06    -125.256E+06    -313.273E+06    -116.343E+06    -313.258E+06    -122.874E+06    -1.35085E+06
             254     104.328E-03    -2.03998E-06     104.328E-03     323.077E-03    -160.157E-03    -162.920E-03    -162.364E-03     323.040E-03    -160.676E-03     3.25430E-03     323.807E-03     188.182E+06    -111.333E+06    -127.925E+06    -307.258E+06    -119.180E+06    -307.074E+06    -120.261E+06     3.92643E+06
             255     102.915E-03     844.778E-09     102.915E-03     321.954E-03    -160.474E-03    -161.479E-03    -160.462E-03     321.941E-03    -161.479E-03     302.389E-06     322.699E-03     183.095E+06    -107.673E+06    -123.356E+06    -298.103E+06    -115.525E+06    -297.915E+06    -115.693E+06     3.39221E+06
             256     101.570E-03    -2.14917E-06     101.570E-03     324.326E-03    -161.619E-03    -162.707E-03    -161.603E-03     324.309E-03    -162.707E-03    -434.885E-06     324.994E-03     169.727E+06    -116.257E+06    -133.766E+06    -294.048E+06    -125.779E+06    -294.015E+06    -124.276E+06     765.013E+03
             257     100.171E-03     822.948E-09     100.171E-03     334.006E-03    -166.557E-03    -167.449E-03    -166.547E-03     333.996E-03    -167.449E-03    -3.72849E-03     334.566E-03     154.817E+06    -114.645E+06    -129.019E+06    -276.110E+06    -124.195E+06    -276.049E+06    -119.529E+06     3.03274E+06
             258     98.7694E-03    -1.58195E-06     98.7694E-03     342.376E-03    -170.784E-03    -171.592E-03    -171.296E-03     342.371E-03    -171.075E-03     1.44369E-03     343.045E-03     146.139E+06    -110.451E+06    -118.499E+06    -260.440E+06    -113.691E+06    -260.364E+06    -115.336E+06     3.34320E+06
             259     97.3389E-03     2.29973E-06     97.3389E-03     339.267E-03    -168.100E-03    -171.167E-03    -171.162E-03     339.261E-03    -168.100E-03     3.23546E-03     340.123E-03     155.353E+06    -113.140E+06    -116.347E+06    -270.044E+06    -116.710E+06    -269.681E+06    -113.140E+06    -3.37913E+06
             260     95.9472E-03     1.67420E-06     95.9472E-03     328.261E-03    -162.307E-03    -165.954E-03    -164.820E-03     328.223E-03    -163.403E-03     7.06967E-03     328.955E-03     173.277E+06    -104.171E+06    -107.927E+06    -279.269E+06    -104.534E+06    -278.949E+06    -107.883E+06    -5.07853E+06
             261     94.5774E-03    -3.95442E-06     94.5774E-03     328.742E-03    -163.742E-03    -165.000E-03    -163.862E-03     328.701E-03    -164.838E-03     3.85265E-03     329.308E-03     178.326E+06    -99.7120E+06    -108.028E+06    -282.049E+06    -99.8229E+06    -281.938E+06    -108.028E+06     3.21506E+06
             262     93.1853E-03     3.86229E-06     93.1853E-03     335.518E-03    -167.213E-03    -168.305E-03    -168.296E-03     335.509E-03    -167.213E-03     26.8079E-06     335.979E-03     177.061E+06    -97.6867E+06    -108.082E+06    -279.714E+06    -103.593E+06    -279.600E+06    -102.291E+06     2.59142E+06
             263     91.7726E-03    -2.59503E-06     91.7726E-03     338.325E-03    -168.490E-03    -169.835E-03    -169.396E-03     338.301E-03    -168.905E-03     6.65079E-03     338.810E-03     165.300E+06    -103.393E+06    -109.373E+06    -271.542E+06    -109.189E+06    -271.537E+06    -103.582E+06    -798.493E+03
             264     90.3667E-03     1.58421E-06     90.3667E-03     336.465E-03    -167.370E-03    -169.095E-03    -168.653E-03     336.438E-03    -167.785E-03     7.19629E-03     337.006E-03     160.788E+06    -107.823E+06    -110.866E+06    -270.096E+06    -110.683E+06    -270.090E+06    -108.012E+06    -880.092E+03
             265     88.9728E-03     316.910E-09     88.9728E-03     332.840E-03    -165.247E-03    -167.593E-03    -167.576E-03     332.823E-03    -165.247E-03     5.83467E-03     333.404E-03     164.185E+06    -100.050E+06    -107.902E+06    -268.007E+06    -102.978E+06    -267.932E+06    -105.048E+06     1.74417E+06
             266     87.5935E-03     1.09342E-06     87.5935E-03     335.418E-03    -166.532E-03    -168.886E-03    -168.871E-03     335.402E-03    -166.532E-03     825.762E-06     335.994E-03     155.861E+06    -103.258E+06    -111.924E+06    -263.268E+06    -107.050E+06    -263.144E+06    -108.257E+06     4.39117E+06
             267     86.1894E-03     936.413E-09     86.1894E-03     337.144E-03    -167.435E-03    -169.709E-03    -169.698E-03     337.133E-03    -167.435E-03     60.6270E-06     337.763E-03     147.281E+06    -105.773E+06    -110.030E+06    -255.115E+06    -109.581E+06    -254.975E+06    -106.362E+06    -479.440E+03
             268     84.7714E-03     328.374E-09     84.7714E-03     330.738E-03    -163.134E-03    -167.604E-03    -164.068E-03     330.717E-03    -166.649E-03     6.23534E-03     331.441E-03     150.371E+06    -103.617E+06    -105.999E+06    -255.162E+06    -103.750E+06    -255.029E+06    -105.999E+06    -535.570E+03
             269     83.4016E-03    -6.59065E-06     83.4016E-03     327.412E-03    -160.771E-03    -166.642E-03    -163.104E-03     327.390E-03    -164.286E-03     1.19539E-03     327.961E-03     150.885E+06    -102.309E+06    -104.618E+06    -254.332E+06    -102.871E+06    -254.285E+06    -104.103E+06     2.06193E+06
             270     82.0248E-03     10.2802E-06     82.0248E-03     333.290E-03    -165.029E-03    -168.260E-03    -167.378E-03     333.283E-03    -165.905E-03    -2.95910E-03     333.699E-03     138.787E+06    -104.537E+06    -106.236E+06    -244.165E+06    -106.301E+06    -244.100E+06    -104.537E+06     2.19613E+06
             271     80.6190E-03    -12.0987E-06     80.6190E-03     339.589E-03    -167.683E-03    -171.906E-03    -167.677E-03     339.583E-03    -171.906E-03    -2.80531E-03     340.068E-03     123.303E+06    -108.726E+06    -111.178E+06    -233.236E+06    -111.340E+06    -233.074E+06    -108.726E+06    -241.272E+03
             272     79.2013E-03     6.20110E-06     79.2013E-03     340.464E-03    -167.636E-03    -172.828E-03    -169.455E-03     340.438E-03    -170.983E-03     2.05480E-03     340.935E-03     120.933E+06    -115.252E+06    -117.889E+06    -237.482E+06    -116.616E+06    -237.384E+06    -116.622E+06    -2.19118E+06
             273     77.7879E-03    -3.43587E-06     77.7879E-03     336.710E-03    -167.358E-03    -169.352E-03    -169.176E-03     336.684E-03    -167.507E-03     7.11414E-03     337.209E-03     140.354E+06    -96.5113E+06    -98.9171E+06    -238.052E+06    -96.7820E+06    -237.782E+06    -98.9171E+06     4.65065E+06
             274     77.1978E-03     14.4230E-03     75.8385E-03     349.090E-03    -166.864E-03    -182.226E-03    -178.254E-03     345.118E-03    -166.864E-03     90.0159E-03     377.877E-03     133.634E+06     142.665E+06     77.6941E+06    -11.0164E+06    -10.2673E+06     76.9449E+06     142.665E+06     5.21961E+06
             275     76.8989E-03     13.5725E-03     75.6917E-03     339.336E-03    -166.167E-03    -173.169E-03    -169.356E-03     335.523E-03    -166.167E-03     86.5308E-03     369.600E-03     83.4423E+06     79.9269E+06     41.5696E+06    -15.7809E+06    -11.9394E+06     37.7280E+06     79.9269E+06     2.74710E+06
             276     76.6571E-03     12.7176E-03     75.5948E-03     332.774E-03    -165.109E-03    -167.665E-03    -164.355E-03     330.337E-03    -165.981E-03     69.1901E-03     354.827E-03     60.5725E+06     48.7756E+06     16.9344E+06    -20.8374E+06    -16.2648E+06     12.3619E+06     48.7756E+06     1.18935E+06
             277     76.4319E-03     11.8707E-03     75.5045E-03     331.714E-03    -164.320E-03    -167.395E-03    -164.025E-03     330.083E-03    -166.058E-03     56.2277E-03     348.656E-03     60.1945E+06     43.6993E+06     6.97831E+06    -25.5433E+06    -23.6652E+06     5.10019E+06     43.6993E+06     4.85425E+06
             278     76.2277E-03     11.0152E-03     75.4277E-03     332.945E-03    -165.193E-03    -167.752E-03    -165.729E-03     331.789E-03    -166.059E-03     47.9950E-03     348.364E-03     61.1329E+06     31.9060E+06     768.234E+03    -37.9868E+06    -36.6667E+06    -551.824E+03     31.9060E+06    -2.56955E+06
             279     76.0291E-03     10.1689E-03     75.3460E-03     333.962E-03    -165.996E-03    -167.966E-03    -167.085E-03     333.081E-03    -165.996E-03     41.3708E-03     348.567E-03     68.0801E+06     33.7110E+06     2.75809E+06    -44.2895E+06    -43.3544E+06     1.82296E+06     33.7110E+06    -5.71447E+06
             280     75.8662E-03     9.32358E-03     75.2911E-03     331.966E-03    -165.180E-03    -166.787E-03    -165.379E-03     331.325E-03    -165.946E-03     35.4489E-03     344.383E-03     73.1404E+06     33.9870E+06     1.02678E+06    -49.7691E+06    -49.1593E+06     417.011E+03     33.9870E+06     1.67698E+06
             281     75.7080E-03     8.47529E-03     75.2321E-03     331.144E-03    -164.885E-03    -166.259E-03    -164.638E-03     330.594E-03    -165.956E-03     32.8810E-03     342.774E-03     70.0352E+06     23.0881E+06    -1.39739E+06    -55.4951E+06    -54.0098E+06    -2.88271E+06     23.0881E+06    -634.702E+03
             282     75.5720E-03     7.62738E-03     75.1861E-03     332.451E-03    -165.634E-03    -166.817E-03    -166.119E-03     332.058E-03    -165.939E-03     27.8437E-03     341.845E-03     65.3216E+06     13.1619E+06    -4.88893E+06    -59.0212E+06    -57.6237E+06    -6.28640E+06     13.1619E+06    -648.896E+03
             283     75.4545E-03     6.78166E-03     75.1491E-03     332.277E-03    -165.291E-03    -166.986E-03    -166.172E-03     332.007E-03    -165.835E-03     23.0622E-03     339.370E-03     57.2023E+06     466.278E+03    -18.3502E+06    -63.5945E+06    -62.7329E+06    -19.2118E+06     466.278E+03     5.55996E+06
             284     75.3458E-03     5.93361E-03     75.1118E-03     330.817E-03    -164.441E-03    -166.376E-03    -164.843E-03     330.644E-03    -165.801E-03     18.3370E-03     336.346E-03     49.2145E+06    -20.1073E+06    -47.0965E+06    -75.2400E+06    -71.9019E+06    -50.4346E+06    -20.1073E+06     5.82861E+06
             285     75.2489E-03     5.08324E-03     75.0771E-03     330.405E-03    -164.468E-03    -165.938E-03    -164.371E-03     330.309E-03    -165.938E-03     13.6258E-03     334.385E-03     49.3900E+06    -37.2848E+06    -72.3633E+06    -92.7049E+06    -80.7997E+06    -84.2686E+06    -37.2848E+06     5.98904E+06
             286     75.1825E-03     4.23643E-03     75.0631E-03     330.923E-03    -164.789E-03    -166.134E-03    -164.728E-03     330.862E-03    -166.134E-03     10.9306E-03     333.806E-03     53.0463E+06    -54.5747E+06    -83.6757E+06    -114.626E+06    -86.3841E+06    -111.918E+06    -54.5747E+06     6.19787E+06
             287     75.1187E-03     3.38715E-03     75.0423E-03     330.555E-03    -164.044E-03    -166.511E-03    -164.004E-03     330.515E-03    -166.511E-03     8.63274E-03     332.581E-03     58.0398E+06    -73.9093E+06    -92.8371E+06    -138.577E+06    -94.0137E+06    -137.400E+06    -73.9093E+06     4.75037E+06
             288     75.0730E-03     2.53869E-03     75.0301E-03     331.054E-03    -163.635E-03    -167.419E-03    -163.609E-03     331.028E-03    -167.419E-03     7.07126E-03     332.259E-03     69.2223E+06    -88.7742E+06    -101.412E+06    -163.230E+06    -101.776E+06    -162.866E+06    -88.7742E+06     2.00611E+06
             289     75.0313E-03     1.68806E-03     75.0123E-03     334.543E-03    -165.707E-03    -168.836E-03    -165.673E-03     334.508E-03    -168.836E-03     8.25408E-03     335.168E-03     74.5484E+06    -98.3985E+06    -106.023E+06    -176.441E+06    -104.382E+06    -175.972E+06    -100.508E+06     547.333E+03
             290     75.0042E-03     841.539E-06     74.9995E-03     339.589E-03    -168.517E-03    -171.072E-03    -169.279E-03     339.568E-03    -170.289E-03     5.46727E-03     339.998E-03     93.6804E+06    -107.331E+06    -113.511E+06    -203.923E+06    -109.813E+06    -203.333E+06    -111.618E+06    -2.06434E+06
             291     75.8069E-03     14.4018E-03     74.4263E-03     344.859E-03    -167.129E-03    -177.730E-03    -173.096E-03     340.225E-03    -167.129E-03     96.8702E-03     375.077E-03     129.090E+06     134.882E+06     70.4369E+06    -13.7109E+06    -13.0976E+06     69.8237E+06     134.882E+06    -1.65500E+06
             292     75.5302E-03     13.5602E-03     74.3030E-03     340.076E-03    -166.696E-03    -173.379E-03    -168.338E-03     335.034E-03    -166.696E-03     100.578E-03     373.513E-03     86.3924E+06     76.5203E+06     37.7468E+06    -22.4222E+06    -18.2604E+06     33.5850E+06     76.5203E+06     8.30103E+06
             293     75.2833E-03     12.7146E-03     74.2018E-03     339.769E-03    -166.455E-03    -173.314E-03    -169.867E-03     336.321E-03    -166.455E-03     83.0309E-03     363.888E-03     65.2196E+06     54.4009E+06     21.5386E+06    -20.3617E+06    -16.7688E+06     17.9457E+06     54.4009E+06     8.43101E+06
             294     75.0530E-03     11.8656E-03     74.1091E-03     339.847E-03    -166.120E-03    -173.727E-03    -171.693E-03     337.813E-03    -166.120E-03     63.5463E-03     358.275E-03     62.9731E+06     50.1095E+06     10.2304E+06    -22.3987E+06    -22.2065E+06     10.0382E+06     50.1095E+06    -1.77468E+06
             295     74.8516E-03     11.0269E-03     74.0349E-03     336.599E-03    -165.719E-03    -170.880E-03    -169.583E-03     335.301E-03    -165.719E-03     51.1681E-03     353.046E-03     66.2220E+06     42.6645E+06     4.67643E+06    -33.3229E+06    -32.6332E+06     3.98670E+06     42.6645E+06    -1.88561E+06
             296     74.6496E-03     10.1792E-03     73.9523E-03     332.142E-03    -164.808E-03    -167.334E-03    -165.741E-03     331.232E-03    -165.491E-03     41.6234E-03     346.339E-03     66.9998E+06     34.4167E+06     2.33516E+06    -42.3976E+06    -41.7554E+06     1.69289E+06     34.4167E+06    -668.013E+03
             297     74.4865E-03     9.32947E-03     73.8999E-03     329.809E-03    -164.181E-03    -165.628E-03    -163.623E-03     329.140E-03    -165.516E-03     36.0245E-03     342.111E-03     70.0442E+06     29.5438E+06      671.09E+03    -50.1520E+06    -48.4811E+06    -999.858E+03     29.5438E+06    -1.53016E+06
             298     74.3296E-03     8.47854E-03     73.8444E-03     330.570E-03    -164.651E-03    -165.919E-03    -164.314E-03     329.922E-03    -165.608E-03     35.6063E-03     342.242E-03     69.8760E+06     22.7373E+06     1.07839E+06    -55.0502E+06    -52.1832E+06    -1.78867E+06     22.7373E+06    -2.58937E+06
             299     74.1857E-03     7.62840E-03     73.7925E-03     331.827E-03    -165.268E-03    -166.559E-03    -165.848E-03     331.421E-03    -165.573E-03     27.9986E-03     340.639E-03     64.2721E+06     6.00043E+06    -9.37083E+06    -64.3796E+06    -62.8754E+06    -10.8750E+06     6.00043E+06    -1.05618E+06
             300     74.0628E-03     6.78213E-03     73.7517E-03     332.112E-03    -165.420E-03    -166.692E-03    -166.430E-03     331.849E-03    -165.420E-03     22.7833E-03     339.113E-03     58.6600E+06    -9.50713E+06    -25.1585E+06    -74.3407E+06    -73.8969E+06    -25.6024E+06    -9.50713E+06     2.67866E+06
             301     73.9576E-03     5.93843E-03     73.7188E-03     330.672E-03    -164.559E-03    -166.113E-03    -165.181E-03     330.479E-03    -165.297E-03     19.3179E-03     336.319E-03     51.8650E+06    -24.3103E+06    -46.9608E+06    -83.0209E+06    -79.9996E+06    -49.9821E+06    -24.3103E+06     5.97581E+06
             302     73.8702E-03     5.08836E-03     73.6947E-03     329.081E-03    -163.482E-03    -165.599E-03    -163.591E-03     328.973E-03    -165.381E-03     14.3745E-03     333.197E-03     45.7438E+06    -41.8330E+06    -71.7571E+06    -94.1125E+06    -84.1223E+06    -81.7473E+06    -41.8330E+06     5.63078E+06
             303     73.7873E-03     4.23641E-03     73.6656E-03     329.554E-03    -163.906E-03    -165.648E-03    -163.845E-03     329.493E-03    -165.648E-03     10.9008E-03     332.594E-03     49.2010E+06    -57.7097E+06    -88.1679E+06    -114.090E+06    -90.7317E+06    -111.526E+06    -57.7097E+06     4.70893E+06
             304     73.7318E-03     3.39073E-03     73.6538E-03     330.679E-03    -164.597E-03    -166.082E-03    -164.740E-03     330.644E-03    -165.905E-03     8.10582E-03     332.763E-03     54.8837E+06    -73.2537E+06    -94.6144E+06    -135.055E+06    -95.8722E+06    -133.797E+06    -73.2537E+06     5.65030E+06
             305     73.6815E-03     2.54043E-03     73.6377E-03     331.175E-03    -164.560E-03    -166.615E-03    -164.941E-03     331.149E-03    -166.209E-03     7.15643E-03     332.471E-03     65.6153E+06    -88.4903E+06    -99.7554E+06    -158.856E+06    -100.260E+06    -158.351E+06    -88.4903E+06     3.57151E+06
             306     73.6401E-03     1.69275E-03     73.6206E-03     331.843E-03    -164.706E-03    -167.137E-03    -164.908E-03     331.816E-03    -166.908E-03     7.08357E-03     332.554E-03     71.5415E+06    -98.6532E+06    -105.351E+06    -173.282E+06    -105.617E+06    -173.016E+06    -98.6532E+06     2.32152E+06
             307     73.6013E-03     843.069E-06     73.5965E-03     335.170E-03    -166.133E-03    -169.037E-03    -166.099E-03     335.136E-03    -169.037E-03     7.03500E-03     335.677E-03     96.8624E+06    -103.447E+06    -108.124E+06    -202.533E+06    -106.199E+06    -202.281E+06    -105.624E+06     4.31785E+06
             308     74.4348E-03     14.3954E-03     73.0295E-03     337.945E-03    -167.580E-03    -170.365E-03    -166.737E-03     334.381E-03    -167.644E-03     83.9380E-03     366.580E-03     127.444E+06     132.279E+06     67.4932E+06    -14.5028E+06    -14.0770E+06     67.0673E+06     132.279E+06    -1.25337E+06
             309     74.1552E-03     13.5383E-03     72.9089E-03     341.719E-03    -167.357E-03    -174.362E-03    -170.373E-03     337.730E-03    -167.357E-03     88.8709E-03     373.668E-03     95.2603E+06     77.2255E+06     34.5860E+06    -31.8452E+06    -25.9917E+06     28.7324E+06     77.2255E+06    -2.04277E+06
             310     73.8890E-03     12.6931E-03     72.7906E-03     344.557E-03    -166.871E-03    -177.686E-03    -174.983E-03     341.854E-03    -166.871E-03     70.9590E-03     366.958E-03     73.9538E+06     53.8682E+06     16.9107E+06    -30.8297E+06    -25.2571E+06     11.3381E+06     53.8682E+06     592.149E+03
             311     73.6617E-03     11.8636E-03     72.7000E-03     341.510E-03    -166.259E-03    -175.251E-03    -173.649E-03     339.908E-03    -166.259E-03     55.5423E-03     359.218E-03      64.825E+06     46.3224E+06     8.00066E+06    -28.4596E+06    -26.5102E+06     6.05125E+06     46.3224E+06     3.10407E+06
             312     73.4611E-03     11.0231E-03     72.6293E-03     336.972E-03    -165.822E-03    -171.150E-03    -169.672E-03     335.493E-03    -165.822E-03     54.6973E-03     354.217E-03     69.2480E+06     52.2547E+06     13.5257E+06    -27.6516E+06    -25.3048E+06     11.1789E+06     52.2547E+06     5.75567E+06
             313     73.2761E-03     10.1800E-03     72.5656E-03     333.436E-03    -164.881E-03    -168.555E-03    -166.622E-03     332.186E-03    -165.564E-03     49.4881E-03     347.792E-03     67.5565E+06     40.8972E+06     6.57979E+06    -36.8031E+06    -36.2856E+06     6.06223E+06     40.8972E+06     4.29197E+06
             314     73.1104E-03     9.32752E-03     72.5129E-03     332.516E-03    -164.500E-03    -168.016E-03    -166.253E-03     331.646E-03    -165.393E-03     41.4259E-03     344.900E-03     62.3404E+06     23.4405E+06     380.686E+03    -46.9546E+06    -45.8010E+06    -772.879E+03     23.4405E+06    -2.07481E+06
             315     72.9469E-03     8.47942E-03     72.4524E-03     332.480E-03    -165.035E-03    -167.445E-03    -166.606E-03     331.851E-03    -165.245E-03     35.0485E-03     343.336E-03     63.7399E+06     15.9440E+06    -3.44758E+06    -55.2185E+06    -53.6160E+06    -5.05006E+06     15.9440E+06    -2.57256E+06
             316     72.7998E-03     7.63523E-03     72.3983E-03     330.613E-03    -164.649E-03    -165.965E-03    -165.102E-03     330.236E-03    -165.134E-03     27.0057E-03     338.530E-03     64.3675E+06     8.05282E+06    -10.7552E+06    -63.5206E+06    -62.6829E+06    -11.5929E+06     8.05282E+06     1.73551E+06
             317     72.6786E-03     6.78673E-03     72.3611E-03     329.731E-03    -164.447E-03    -165.284E-03    -164.368E-03     329.462E-03    -165.094E-03     22.9329E-03     336.437E-03     56.9273E+06    -8.63609E+06    -24.6641E+06     -71.777E+06    -70.9661E+06    -25.4750E+06    -8.63609E+06     4.15010E+06
             318     72.5699E-03     5.93439E-03     72.3268E-03     330.022E-03    -164.696E-03    -165.326E-03    -164.741E-03     329.827E-03    -165.086E-03     19.3680E-03     335.513E-03     46.6260E+06    -26.8968E+06    -50.1651E+06    -79.3771E+06    -78.8521E+06    -50.6901E+06    -26.8968E+06     3.22312E+06
             319     72.4809E-03     5.08980E-03     72.3020E-03     329.638E-03    -164.305E-03    -165.333E-03    -164.399E-03     329.506E-03    -165.106E-03     15.9809E-03     333.755E-03     42.1402E+06    -42.8988E+06    -74.8181E+06    -90.3205E+06    -85.9940E+06    -79.1447E+06    -42.8988E+06     3.40230E+06
             320     72.4070E-03     4.24197E-03     72.2827E-03     329.134E-03    -163.879E-03    -165.255E-03    -163.789E-03     329.034E-03    -165.246E-03     13.6824E-03     332.220E-03     46.4430E+06    -59.8710E+06    -87.9969E+06    -112.422E+06    -91.2562E+06    -109.163E+06    -59.8710E+06     5.17187E+06
             321     72.3369E-03     3.38915E-03     72.2575E-03     330.667E-03    -164.535E-03    -166.132E-03    -165.280E-03     330.609E-03    -165.329E-03     10.4521E-03     332.785E-03     49.6260E+06    -77.3199E+06    -96.7581E+06    -133.570E+06    -97.3138E+06    -133.014E+06    -77.3199E+06     2.68380E+06
             322     72.2924E-03     2.54558E-03     72.2475E-03     332.463E-03    -164.860E-03    -167.602E-03    -167.570E-03     332.430E-03    -164.860E-03     7.86030E-03     333.820E-03     62.1725E+06    -86.2131E+06    -100.151E+06    -153.949E+06    -100.500E+06    -153.599E+06    -86.2131E+06     2.91558E+06
             323     72.2453E-03     1.69919E-03     72.2253E-03     330.493E-03    -163.357E-03    -167.136E-03    -166.927E-03     330.479E-03    -163.552E-03     4.78181E-03     331.197E-03     70.0445E+06    -96.1552E+06    -104.697E+06    -169.961E+06    -104.833E+06    -169.825E+06    -96.1552E+06     2.45699E+06
             324     72.2179E-03     851.843E-06     72.2129E-03     325.699E-03    -160.607E-03    -165.092E-03    -163.898E-03     325.671E-03    -161.774E-03     5.96433E-03     326.218E-03     92.6301E+06    -104.506E+06    -107.623E+06    -198.621E+06    -107.731E+06    -198.513E+06    -104.506E+06     1.70276E+06
             325     73.0695E-03     14.3921E-03     71.6381E-03     341.356E-03    -167.600E-03    -173.756E-03    -170.754E-03     338.418E-03    -167.663E-03     77.4277E-03     368.877E-03     129.192E+06     139.945E+06     72.9939E+06    -8.95419E+06    -8.59292E+06     72.6326E+06     139.945E+06     4.56823E+06
             326     72.7829E-03     13.5528E-03     71.5099E-03     345.084E-03    -167.052E-03    -178.032E-03    -175.171E-03     342.223E-03    -167.052E-03     76.7883E-03     374.068E-03     88.4809E+06     82.3138E+06     40.2988E+06    -19.2914E+06    -16.3442E+06     37.3516E+06     82.3138E+06    -2.91253E+06
             327     72.4989E-03     12.7207E-03     71.3741E-03     339.898E-03    -165.920E-03    -173.979E-03    -171.583E-03     338.040E-03    -166.457E-03     59.9614E-03     360.899E-03     69.9946E+06     46.0192E+06     7.16826E+06    -34.2247E+06    -30.9189E+06     3.86244E+06     46.0192E+06    -6.28439E+06
             328     72.2876E-03     11.8696E-03     71.3065E-03     334.613E-03    -165.655E-03    -168.958E-03    -167.084E-03     333.276E-03    -166.193E-03     50.7214E-03     351.019E-03     69.2272E+06     46.7701E+06     3.20750E+06    -32.8835E+06    -29.1430E+06    -532.992E+03     46.7701E+06    -795.028E+03
             329     72.0800E-03     11.0158E-03     71.2333E-03     333.579E-03    -166.093E-03    -167.486E-03    -166.188E-03     332.282E-03    -166.093E-03     50.5970E-03     349.285E-03     68.5142E+06     48.3155E+06     10.4080E+06    -30.6546E+06    -27.2369E+06     6.99032E+06     48.3155E+06     2.73251E+06
             330     71.8931E-03     10.1647E-03     71.1709E-03     334.997E-03    -165.942E-03    -169.055E-03    -167.960E-03     333.902E-03    -165.942E-03     46.2524E-03     349.363E-03     66.0750E+06     43.5441E+06     12.3259E+06    -32.2764E+06    -31.6688E+06     11.7183E+06     43.5441E+06     4.67114E+06
             331     71.7217E-03     9.32668E-03     71.1127E-03     336.899E-03    -165.570E-03    -171.330E-03    -170.415E-03     335.985E-03    -165.570E-03     42.7257E-03     349.402E-03     63.9378E+06     31.3997E+06     7.98724E+06    -40.8079E+06    -39.7839E+06     6.96323E+06     31.3997E+06     5.79448E+06
             332     71.5599E-03     8.48775E-03     71.0548E-03     334.424E-03    -165.084E-03    -169.340E-03    -168.670E-03     333.754E-03    -165.084E-03     35.9955E-03     344.668E-03     60.5963E+06     8.46150E+06    -7.04922E+06    -58.2612E+06    -56.7745E+06    -8.53588E+06     8.46150E+06     4.69948E+06
             333     71.4219E-03     7.63722E-03     71.0124E-03     329.791E-03    -164.092E-03    -165.698E-03    -164.463E-03     329.345E-03    -164.882E-03     29.5834E-03     337.765E-03     59.8224E+06    -1.55095E+06    -15.4510E+06    -66.9303E+06    -65.7767E+06    -16.6046E+06    -1.55095E+06     2.31130E+06
             334     71.2954E-03     6.78550E-03     70.9718E-03     328.766E-03    -163.804E-03    -164.961E-03    -163.433E-03     328.394E-03    -164.961E-03     26.7258E-03     335.655E-03     56.5689E+06    -8.80336E+06    -25.6797E+06    -71.7438E+06    -71.1086E+06    -26.3149E+06    -8.80336E+06     1.76656E+06
             335     71.1846E-03     5.94020E-03     70.9364E-03     329.171E-03    -164.093E-03    -165.078E-03    -163.866E-03     328.944E-03    -165.078E-03     20.8082E-03     334.441E-03     46.3873E+06    -23.1320E+06    -45.9115E+06    -75.6832E+06    -74.4737E+06    -47.1210E+06    -23.1320E+06     3.31062E+06
             336     71.0954E-03     5.08713E-03     70.9132E-03     329.804E-03    -164.530E-03    -165.273E-03    -164.502E-03     329.650E-03    -165.148E-03     17.1993E-03     333.806E-03      40.348E+06    -42.5571E+06    -72.8582E+06    -87.8746E+06    -82.5004E+06    -78.2324E+06    -42.5571E+06     2.83435E+06
             337     71.0158E-03     4.23887E-03     70.8892E-03     330.548E-03    -164.816E-03    -165.732E-03    -165.312E-03     330.440E-03    -165.128E-03     14.4506E-03     333.475E-03     45.3164E+06    -59.5462E+06    -90.2948E+06    -110.554E+06    -92.0524E+06    -108.797E+06    -59.5462E+06     1.56585E+06
             338     70.9538E-03     3.39354E-03     70.8726E-03     331.002E-03    -164.610E-03    -166.392E-03    -165.993E-03     330.915E-03    -164.922E-03     12.9953E-03     333.008E-03     50.6527E+06    -72.3174E+06    -93.9827E+06    -129.440E+06    -94.6176E+06    -128.805E+06    -72.3174E+06     2.21721E+06
             339     70.8894E-03     2.54511E-03     70.8437E-03     332.032E-03    -164.133E-03    -167.899E-03    -167.833E-03     331.966E-03    -164.133E-03     10.9984E-03     333.327E-03     59.7076E+06    -87.0752E+06    -101.102E+06    -152.431E+06    -101.471E+06    -152.062E+06    -87.0752E+06     536.223E+03
             340     70.8594E-03     1.70423E-03     70.8389E-03     330.132E-03    -161.972E-03    -168.160E-03    -168.132E-03     330.104E-03    -161.972E-03     6.72221E-03     330.770E-03     66.4501E+06    -99.5431E+06    -108.003E+06    -169.690E+06    -108.148E+06    -169.545E+06    -99.5431E+06     288.064E+03
             341     70.8329E-03     858.096E-06     70.8277E-03     321.163E-03    -157.835E-03    -163.328E-03    -163.315E-03     321.150E-03    -157.835E-03     3.58083E-03     321.536E-03     86.3217E+06    -106.639E+06    -110.820E+06    -194.955E+06    -109.210E+06    -194.886E+06    -108.318E+06    -577.135E+03
             342     71.6889E-03     14.3968E-03     70.2284E-03     345.484E-03    -167.330E-03    -178.153E-03    -175.029E-03     342.359E-03    -167.330E-03     80.2641E-03     374.793E-03     130.486E+06     143.592E+06     76.6316E+06    -6.70194E+06    -6.00008E+06     75.9298E+06     143.592E+06    -1.22129E+06
             343     71.3856E-03     13.5682E-03     70.0843E-03     343.445E-03    -166.619E-03    -176.826E-03    -173.490E-03     340.109E-03    -166.619E-03     82.8213E-03     374.378E-03     79.4544E+06     84.0543E+06     41.2993E+06    -6.79581E+06    -6.28775E+06     40.7912E+06     84.0543E+06     1.34797E+06
             344     71.1417E-03     12.7147E-03     69.9963E-03     335.897E-03    -165.701E-03    -170.196E-03    -167.200E-03     333.438E-03    -166.238E-03     69.8851E-03     359.098E-03     61.4802E+06     48.8016E+06     7.19699E+06    -21.2856E+06    -20.5264E+06     6.43784E+06     48.8016E+06     114.629E+03
             345     70.9079E-03     11.8623E-03     69.9086E-03     333.048E-03    -165.665E-03    -167.383E-03    -165.316E-03     331.519E-03    -166.202E-03     54.6063E-03     350.394E-03     69.1948E+06     44.5798E+06    -2.20731E+06    -34.8751E+06    -32.4248E+06    -4.65769E+06     44.5798E+06    -2.71559E+06
             346     70.7100E-03     11.0187E-03     69.8462E-03     333.276E-03    -166.176E-03    -167.100E-03    -165.886E-03     332.062E-03    -166.176E-03     48.7353E-03     349.677E-03     68.9442E+06     40.3574E+06    -2.80648E+06    -38.9792E+06    -36.5108E+06    -5.27489E+06     40.3574E+06     1.20178E+06
             347     70.5100E-03     10.1742E-03     69.7721E-03     334.913E-03    -166.065E-03    -168.848E-03    -167.730E-03     333.795E-03    -166.065E-03     46.6412E-03     350.455E-03     66.2958E+06     42.4661E+06     8.55008E+06    -33.5392E+06    -32.4952E+06     7.50611E+06     42.4661E+06     5.57170E+06
             348     70.3332E-03     9.32440E-03     69.7124E-03     335.698E-03    -165.805E-03    -169.893E-03    -168.946E-03     334.750E-03    -165.805E-03     43.4724E-03     348.022E-03     67.1566E+06     36.0900E+06     9.83690E+06    -40.1349E+06    -38.8432E+06     8.54513E+06     36.0900E+06     7.44807E+06
             349     70.1672E-03     8.47790E-03     69.6532E-03     334.068E-03    -165.469E-03    -168.600E-03    -167.886E-03     333.355E-03    -165.469E-03     37.1716E-03     344.172E-03     64.3333E+06     19.0928E+06     418.031E+03    -52.2826E+06    -50.3683E+06    -1.49621E+06     19.0928E+06     9.69023E+06
             350     70.0458E-03     7.63425E-03     69.6285E-03     331.971E-03    -164.909E-03    -167.062E-03    -166.252E-03     331.465E-03    -165.213E-03     31.7316E-03     340.531E-03     57.9929E+06     2.87257E+06    -8.04039E+06    -59.6696E+06    -58.2431E+06    -9.46684E+06     2.87257E+06     6.12271E+06
             351     69.9092E-03     6.78635E-03     69.5791E-03     329.799E-03    -163.921E-03    -165.878E-03    -164.205E-03     329.364E-03    -165.159E-03     29.0657E-03     337.159E-03     51.4830E+06    -13.7591E+06    -28.3636E+06    -70.4379E+06    -69.9759E+06    -28.8257E+06    -13.7591E+06     318.497E+03
             352     69.8026E-03     5.93366E-03     69.5500E-03     329.207E-03    -163.902E-03    -165.305E-03    -163.622E-03     328.927E-03    -165.305E-03     23.4294E-03     334.637E-03     47.3822E+06    -25.6592E+06    -50.8931E+06    -79.9432E+06    -78.7861E+06    -52.0501E+06    -25.6592E+06     248.177E+03
             353     69.7069E-03     5.08787E-03     69.5210E-03     330.646E-03    -164.929E-03    -165.716E-03    -165.045E-03     330.443E-03    -165.398E-03     19.8102E-03     334.856E-03     44.3348E+06    -39.8849E+06    -68.9504E+06    -90.8055E+06    -83.1505E+06    -76.6054E+06    -39.8849E+06     3.54406E+06
             354     69.6268E-03     4.24103E-03     69.4975E-03     331.937E-03    -165.237E-03    -166.700E-03    -166.566E-03     331.803E-03    -165.237E-03     15.9895E-03     334.923E-03     46.3324E+06    -56.9168E+06    -86.4861E+06    -110.037E+06    -89.9737E+06    -106.550E+06    -56.9168E+06     2.43364E+06
             355     69.5604E-03     3.39347E-03     69.4776E-03     331.573E-03    -164.826E-03    -166.747E-03    -166.640E-03     331.466E-03    -164.826E-03     14.4336E-03     333.472E-03     51.2356E+06    -71.2515E+06    -95.7381E+06    -129.477E+06    -96.0384E+06    -129.177E+06    -71.2515E+06     1.56816E+06
             356     69.5034E-03     2.54711E-03     69.4567E-03     329.790E-03    -163.551E-03    -166.239E-03    -165.303E-03     329.702E-03    -164.399E-03     13.0667E-03     330.921E-03     59.6108E+06    -87.4116E+06    -99.8125E+06    -151.721E+06    -100.367E+06    -151.166E+06    -87.4116E+06     2.41775E+06
             357     69.4612E-03     1.69646E-03     69.4405E-03     328.762E-03    -161.803E-03    -166.959E-03    -164.589E-03     328.715E-03    -164.125E-03     9.30794E-03     329.300E-03     66.5716E+06    -99.9232E+06    -104.388E+06    -168.572E+06    -104.761E+06    -168.200E+06    -99.9232E+06     819.349E+03
             358     69.4568E-03     851.023E-06     69.4516E-03     328.285E-03    -161.843E-03    -166.443E-03    -164.003E-03     328.271E-03    -164.268E-03     3.88015E-03     328.698E-03     86.7889E+06    -104.538E+06    -108.498E+06    -193.230E+06    -106.170E+06    -193.030E+06    -107.066E+06     952.743E+03
             359     70.3075E-03     14.4137E-03     68.8142E-03     342.395E-03    -167.174E-03    -175.221E-03    -171.406E-03     338.579E-03    -167.174E-03     87.9567E-03     370.817E-03     129.472E+06     142.299E+06     75.3393E+06    -6.86540E+06    -6.41130E+06     74.8852E+06     142.299E+06    -4.90611E+06
             360     70.0223E-03     13.5529E-03     68.6982E-03     339.054E-03    -166.736E-03    -172.318E-03    -168.682E-03     335.418E-03    -166.736E-03     85.3871E-03     369.239E-03     85.5800E+06     75.4691E+06     28.8231E+06    -22.4921E+06    -21.6011E+06     27.9321E+06     75.4691E+06     1.42123E+06
             361     69.7625E-03     12.7079E-03     68.5953E-03     337.434E-03    -166.448E-03    -170.986E-03    -168.694E-03     335.142E-03    -166.448E-03     67.3594E-03     360.517E-03     56.6711E+06     45.2828E+06     7.20964E+06    -19.2173E+06    -18.0158E+06     6.00818E+06     45.2828E+06     2.89873E+06
             362     69.5360E-03     11.8678E-03     68.5158E-03     334.469E-03    -165.893E-03    -168.576E-03    -166.810E-03     333.095E-03    -166.285E-03     52.1126E-03     351.664E-03     54.1748E+06     38.6037E+06     1.14692E+06    -23.4648E+06    -22.4667E+06     148.869E+03     38.6037E+06     678.511E+03
             363     69.3325E-03     11.0162E-03     68.4518E-03     333.224E-03    -165.883E-03    -167.341E-03    -165.546E-03     331.820E-03    -166.275E-03     52.4976E-03     350.165E-03     66.2372E+06     39.7151E+06    -1.30250E+06    -36.4534E+06    -34.4862E+06    -3.26972E+06     39.7151E+06     36.5658E+03
             364     69.1286E-03     10.1657E-03     68.3771E-03     335.028E-03    -166.232E-03    -168.797E-03    -167.386E-03     333.618E-03    -166.232E-03     52.8670E-03     351.121E-03     71.5204E+06     39.4676E+06     1.08384E+06    -42.7915E+06    -41.2570E+06    -450.681E+03     39.4676E+06     470.193E+03
             365     68.9474E-03     9.32392E-03     68.3141E-03     333.941E-03    -166.059E-03    -167.883E-03    -166.924E-03     333.024E-03    -166.100E-03     42.6627E-03     345.724E-03     69.4212E+06     33.2673E+06     583.613E+03    -46.3870E+06    -45.9137E+06     110.257E+03     33.2673E+06     4.33763E+06
             366     68.7900E-03     8.47447E-03     68.2660E-03     332.417E-03    -165.623E-03    -166.794E-03    -165.747E-03     331.777E-03    -166.031E-03     35.4853E-03     342.254E-03     66.2530E+06     31.0575E+06     5.52126E+06    -43.9891E+06    -42.9325E+06     4.46468E+06     31.0575E+06     7.09120E+06
             367     68.6473E-03     7.62677E-03     68.2224E-03     333.261E-03    -165.540E-03    -167.721E-03    -166.838E-03     332.745E-03    -165.907E-03     32.0550E-03     341.854E-03     60.6168E+06     13.5258E+06    -3.05438E+06    -53.5164E+06    -52.3511E+06    -4.21970E+06     13.5258E+06     7.50688E+06
             368     68.5313E-03     6.78277E-03     68.1948E-03     332.516E-03    -165.004E-03    -167.511E-03    -166.358E-03     332.090E-03    -165.732E-03     28.9943E-03     339.682E-03     51.8133E+06    -7.26353E+06    -20.4608E+06    -63.8656E+06    -62.4551E+06    -21.8713E+06    -7.26353E+06     6.57480E+06
             369     68.4168E-03     5.93436E-03     68.1589E-03     331.010E-03    -164.692E-03    -166.318E-03    -165.023E-03     330.710E-03    -165.687E-03     24.2642E-03     336.304E-03     45.5061E+06    -26.7220E+06    -50.4385E+06    -77.2397E+06    -74.5103E+06    -53.1680E+06    -26.7220E+06     3.05169E+06
             370     68.3178E-03     5.08414E-03     68.1284E-03     331.243E-03    -165.308E-03    -165.935E-03    -165.292E-03     331.026E-03    -165.733E-03     20.7155E-03     335.360E-03     44.1409E+06    -40.7908E+06    -74.4679E+06    -90.1661E+06    -84.2574E+06    -80.3766E+06    -40.7908E+06     2.40978E+06
             371     68.2352E-03     4.23675E-03     68.1036E-03     332.167E-03    -165.489E-03    -166.678E-03    -166.349E-03     331.994E-03    -165.646E-03     18.5085E-03     335.136E-03     44.8743E+06    -53.6199E+06    -82.5473E+06    -104.439E+06    -86.8531E+06    -100.133E+06    -53.6199E+06     4.98570E+06
             372     68.1665E-03     3.39262E-03     68.0821E-03     332.242E-03    -165.334E-03    -166.908E-03    -166.784E-03     332.117E-03    -165.334E-03     15.6444E-03     334.128E-03     49.8990E+06    -73.5006E+06    -94.7199E+06    -130.140E+06    -95.4993E+06    -129.360E+06    -73.5006E+06     3.00032E+06
             373     68.1168E-03     2.54486E-03     68.0692E-03     329.903E-03    -163.937E-03    -165.967E-03    -164.609E-03     329.832E-03    -165.223E-03     11.4870E-03     331.001E-03     60.3248E+06    -86.5196E+06    -100.339E+06    -152.086E+06    -100.595E+06    -151.830E+06    -86.5196E+06     2.40772E+06
             374     68.0784E-03     1.69316E-03     68.0573E-03     328.797E-03    -162.548E-03    -166.249E-03    -162.514E-03     328.763E-03    -166.249E-03     4.74336E-03     329.399E-03     67.2270E+06    -94.6835E+06    -100.506E+06    -164.440E+06    -100.939E+06    -164.008E+06    -94.6835E+06     3.02463E+06
             375     68.0616E-03     836.173E-06     68.0565E-03     334.523E-03    -165.401E-03    -169.122E-03    -165.746E-03     334.513E-03    -168.767E-03    -146.201E-06     335.002E-03     88.3585E+06    -101.682E+06    -106.718E+06      -192.4E+06    -106.184E+06    -192.084E+06    -102.531E+06     2.83356E+06
             376     68.9428E-03     14.3928E-03     67.4237E-03     339.821E-03    -167.333E-03    -172.488E-03    -168.677E-03     336.010E-03    -167.333E-03     87.7853E-03     366.620E-03     126.842E+06     137.204E+06     69.5116E+06    -9.05809E+06    -8.47950E+06     68.9331E+06     137.204E+06     2.92780E+06
             377     68.6512E-03     13.5547E-03     67.2998E-03     339.921E-03    -166.967E-03    -172.954E-03    -169.495E-03     336.462E-03    -166.967E-03     83.4311E-03     369.908E-03     84.9249E+06     75.4472E+06     33.3576E+06    -22.2720E+06    -20.2208E+06     31.3064E+06     75.4472E+06    -617.162E+03
             378     68.3838E-03     12.7118E-03     67.1919E-03     338.030E-03    -166.655E-03    -171.375E-03    -169.070E-03     335.724E-03    -166.655E-03     67.5059E-03     361.542E-03     59.7094E+06     43.2081E+06     9.09744E+06    -25.2956E+06    -22.8107E+06     6.61253E+06     43.2081E+06    -1.12216E+06
             379     68.1617E-03     11.8614E-03     67.1218E-03     334.834E-03    -166.083E-03    -168.752E-03    -167.021E-03     333.496E-03    -166.475E-03     51.4590E-03     351.971E-03     52.8559E+06     34.7900E+06    -110.039E+03    -25.9140E+06    -25.0503E+06    -973.732E+03     34.7900E+06     292.787E+03
             380     67.9627E-03     11.0131E-03     67.0644E-03     334.006E-03    -166.040E-03    -167.966E-03    -166.139E-03     332.572E-03    -166.432E-03     53.0018E-03     350.827E-03     58.7065E+06     36.4225E+06     2.31409E+06    -31.2207E+06    -29.8440E+06     937.415E+03     36.4225E+06    -1.48748E+06
             381     67.7445E-03     10.1675E-03     66.9772E-03     334.273E-03    -165.990E-03    -168.282E-03    -166.469E-03     332.887E-03    -166.418E-03     52.0224E-03     349.817E-03     66.1978E+06     32.1578E+06    -358.440E+03    -43.8068E+06    -42.0705E+06    -2.09477E+06     32.1578E+06    -4.64573E+06
             382     67.5644E-03     9.31859E-03     66.9187E-03     332.906E-03    -165.635E-03    -167.271E-03    -165.621E-03     332.060E-03    -166.439E-03     40.9617E-03     344.054E-03     70.3251E+06     32.3743E+06    -138.067E+03    -48.2194E+06    -47.2761E+06    -1.08136E+06     32.3743E+06    -1.54680E+06
             383     67.4093E-03     8.47210E-03     66.8748E-03     332.151E-03    -165.652E-03    -166.499E-03    -164.978E-03     331.477E-03    -166.499E-03     36.5693E-03     341.770E-03     68.3047E+06     23.5632E+06    -5.66767E+06    -54.3725E+06    -53.9099E+06    -6.13025E+06     23.5632E+06     3.08285E+06
             384     67.2633E-03     7.62190E-03     66.8301E-03     332.696E-03    -165.714E-03    -166.982E-03    -165.622E-03     332.174E-03    -166.553E-03     32.1033E-03     341.111E-03     62.6094E+06     10.6088E+06    -10.8811E+06    -59.8473E+06    -58.8890E+06    -11.8394E+06     10.6088E+06     5.89978E+06
             385     67.1363E-03     6.77388E-03     66.7937E-03     333.965E-03    -166.124E-03    -167.841E-03    -167.069E-03     333.562E-03    -166.493E-03     28.3778E-03     340.991E-03     55.9861E+06    -2.30346E+06    -15.6753E+06    -63.6315E+06    -61.9268E+06    -17.3800E+06    -2.30346E+06     8.31092E+06
             386     67.0294E-03     5.93122E-03     66.7665E-03     333.934E-03    -166.136E-03    -167.797E-03    -167.268E-03     333.593E-03    -166.324E-03     26.0574E-03     339.477E-03     47.0090E+06    -20.3053E+06    -38.5882E+06    -71.7982E+06    -67.5875E+06    -42.7989E+06    -20.3053E+06     8.52506E+06
             387     66.9306E-03     5.08489E-03     66.7372E-03     332.644E-03    -165.867E-03    -166.778E-03    -166.172E-03     332.383E-03    -166.211E-03     22.5784E-03     336.805E-03     40.7505E+06    -40.2093E+06    -70.9457E+06    -85.5669E+06    -77.3715E+06    -79.1412E+06    -40.2093E+06     3.85210E+06
             388     66.8443E-03     4.23644E-03     66.7099E-03     332.044E-03    -165.638E-03    -166.405E-03    -165.625E-03     331.854E-03    -166.228E-03     19.3111E-03     334.958E-03     42.1188E+06    -55.8178E+06    -85.4292E+06    -103.342E+06    -86.4068E+06    -102.364E+06    -55.8178E+06     1.84421E+06
             389     66.7735E-03     3.38674E-03     66.6876E-03     332.393E-03    -165.603E-03    -166.789E-03    -165.974E-03     332.265E-03    -166.291E-03     15.7842E-03     334.385E-03     51.1594E+06    -68.5924E+06    -89.4777E+06    -126.325E+06    -90.3341E+06    -125.468E+06    -68.5924E+06     3.49811E+06
             390     66.7238E-03     2.54150E-03     66.6753E-03     332.890E-03    -165.559E-03    -167.332E-03    -166.581E-03     332.833E-03    -166.252E-03     10.2265E-03     334.208E-03     63.1256E+06    -79.8839E+06    -94.9985E+06    -149.139E+06    -95.1484E+06    -148.989E+06    -79.8839E+06     2.18292E+06
             391     66.6931E-03     1.69528E-03     66.6715E-03     332.801E-03    -164.596E-03    -168.205E-03    -166.802E-03     332.777E-03    -165.974E-03     3.97908E-03     333.478E-03     68.9421E+06    -90.6460E+06    -100.790E+06    -163.959E+06    -101.003E+06    -163.746E+06    -90.6460E+06     2.00557E+06
             392     66.6644E-03     853.124E-06     66.6590E-03     331.705E-03    -164.383E-03    -167.322E-03    -166.205E-03     331.687E-03    -165.483E-03     1.45318E-03     332.036E-03     83.4925E+06    -99.5084E+06    -106.321E+06    -186.129E+06    -106.504E+06    -185.945E+06    -99.5084E+06     1.42533E+06
             393     67.5701E-03     14.4019E-03     66.0175E-03     339.813E-03    -167.264E-03    -172.550E-03    -169.411E-03     336.766E-03    -167.354E-03     78.2540E-03     367.145E-03     126.175E+06     141.041E+06     73.5598E+06    -4.42121E+06    -3.79332E+06     72.9320E+06     141.041E+06      3.8132E+06
             394     67.2803E-03     13.5530E-03     65.9011E-03     337.782E-03    -166.914E-03    -170.868E-03    -167.621E-03     334.626E-03    -167.005E-03     79.6340E-03     367.916E-03     77.9935E+06     83.0797E+06     43.5841E+06    -6.61457E+06    -5.05846E+06     42.0280E+06     83.0797E+06    -1.52589E+06
             395     67.0111E-03     12.7014E-03     65.7964E-03     335.888E-03    -166.679E-03    -169.209E-03    -166.888E-03     333.716E-03    -166.827E-03     64.8588E-03     357.974E-03     60.2448E+06     42.8079E+06     6.78850E+06    -26.4991E+06    -24.7854E+06     5.07484E+06     42.8079E+06    -825.965E+03
             396     66.7851E-03     11.8580E-03     65.7240E-03     334.957E-03    -166.601E-03    -168.356E-03    -166.978E-03     333.728E-03    -166.750E-03     49.3177E-03     351.361E-03     61.9211E+06     34.8871E+06    -3.70883E+06    -36.4905E+06    -35.0008E+06    -5.19852E+06     34.8871E+06     284.010E+03
             397     66.5853E-03     11.0139E-03     65.6681E-03     335.718E-03    -166.655E-03    -169.062E-03    -167.579E-03     334.234E-03    -166.655E-03     53.9090E-03     352.778E-03     61.9711E+06     36.2935E+06     60.2121E+03    -35.2507E+06    -33.3914E+06    -1.79906E+06     36.2935E+06     1.62850E+06
             398     66.3661E-03     10.1656E-03     65.5829E-03     333.698E-03    -165.679E-03    -168.019E-03    -165.685E-03     332.280E-03    -166.595E-03     52.2812E-03     348.979E-03     59.4869E+06     25.8459E+06    -2.01469E+06    -42.1050E+06    -40.1075E+06    -4.01213E+06     25.8459E+06     2.52670E+06
             399     66.1889E-03     9.31577E-03     65.5300E-03     331.821E-03    -165.110E-03    -166.711E-03    -164.284E-03     330.995E-03    -166.711E-03     40.4603E-03     342.486E-03     61.5124E+06     19.3542E+06    -4.33683E+06    -50.4313E+06    -49.0022E+06    -5.76593E+06     19.3542E+06    -996.708E+03
             400     66.0226E-03     8.46489E-03     65.4777E-03     332.927E-03    -166.050E-03    -166.877E-03    -165.409E-03     332.286E-03    -166.877E-03     35.5150E-03     342.273E-03     64.7053E+06     16.6989E+06    -9.43555E+06    -56.9445E+06    -56.8050E+06    -9.57507E+06     16.6989E+06    -1.53066E+06
             401     65.8801E-03     7.61998E-03     65.4379E-03     333.189E-03    -166.214E-03    -166.975E-03    -165.762E-03     332.736E-03    -166.975E-03     29.9062E-03     341.069E-03     63.8574E+06     10.8553E+06    -12.8412E+06    -61.4140E+06    -60.7681E+06    -13.4871E+06     10.8553E+06     1.93575E+06
             402     65.7481E-03     6.77167E-03     65.3984E-03     333.247E-03    -165.921E-03    -167.326E-03    -165.863E-03     332.901E-03    -167.038E-03     26.1855E-03     339.824E-03     57.6595E+06    -1.17281E+06    -17.4691E+06    -65.1243E+06    -63.9302E+06    -18.6632E+06    -1.17281E+06     6.73444E+06
             403     65.6341E-03     5.92263E-03     65.3664E-03     334.322E-03    -166.444E-03    -167.878E-03    -166.997E-03     334.033E-03    -167.036E-03     23.8588E-03     339.833E-03     48.3302E+06    -19.3707E+06    -37.1852E+06    -73.4248E+06    -71.1069E+06    -39.5032E+06    -19.3707E+06     7.38768E+06
             404     65.5380E-03     5.07858E-03     65.3409E-03     334.504E-03    -166.853E-03    -167.650E-03    -167.302E-03     334.248E-03    -166.946E-03     22.4464E-03     338.610E-03     39.7518E+06    -39.2505E+06    -66.0285E+06    -84.3880E+06    -77.9971E+06    -72.4194E+06    -39.2505E+06     4.97531E+06
             405     65.4542E-03     4.23280E-03     65.3172E-03     333.394E-03    -166.306E-03    -167.088E-03    -166.260E-03     333.197E-03    -166.937E-03     19.7013E-03     336.298E-03     40.4826E+06    -55.6324E+06    -83.0069E+06    -101.639E+06    -84.1415E+06    -100.505E+06    -55.6324E+06     2.45215E+06
             406     65.3828E-03     3.38582E-03     65.2951E-03     332.963E-03    -165.797E-03    -167.165E-03    -165.672E-03     332.837E-03    -167.165E-03     15.6793E-03     335.029E-03     50.4536E+06    -67.4919E+06    -88.8135E+06    -124.708E+06    -89.1405E+06    -124.381E+06    -67.4919E+06     2.61891E+06
             407     65.3276E-03     2.53634E-03     65.2783E-03     334.564E-03    -166.459E-03    -168.105E-03    -167.138E-03     334.496E-03    -167.359E-03     11.3634E-03     335.920E-03     60.9810E+06    -80.5204E+06    -94.1146E+06    -146.977E+06    -94.2672E+06    -146.824E+06    -80.5204E+06     2.36440E+06
             408     65.2917E-03     1.69412E-03     65.2697E-03     335.794E-03    -166.658E-03    -169.137E-03    -168.849E-03     335.755E-03    -166.906E-03     8.85929E-03     336.406E-03     67.0589E+06    -90.5275E+06    -98.9369E+06    -161.352E+06    -98.9812E+06    -161.308E+06    -90.5275E+06     226.889E+03
             409     65.2735E-03     848.910E-06     65.2680E-03     333.121E-03    -165.099E-03    -168.021E-03    -167.752E-03     333.096E-03    -165.344E-03     6.17272E-03     333.413E-03     84.4490E+06    -96.0950E+06    -102.846E+06    -183.671E+06    -100.368E+06    -183.655E+06    -98.5897E+06    -665.639E+03
             410     66.2214E-03     14.4079E-03     64.6350E-03     339.220E-03    -166.616E-03    -172.604E-03    -167.936E-03     335.416E-03    -167.481E-03     85.8477E-03     368.374E-03     128.193E+06     142.257E+06     73.0616E+06    -5.62448E+06    -5.10723E+06     72.5443E+06     142.257E+06    -2.28170E+06
             411     65.9134E-03     13.5535E-03     64.5049E-03     338.625E-03    -167.143E-03    -171.483E-03    -167.319E-03     334.552E-03    -167.234E-03     89.3843E-03     370.463E-03     85.8176E+06     83.8798E+06     37.9127E+06    -15.0266E+06    -13.3145E+06     36.2006E+06     83.8798E+06     6.56122E+06
             412     65.6450E-03     12.7098E-03     64.4029E-03     336.241E-03    -166.945E-03    -169.296E-03    -166.772E-03     333.866E-03    -167.094E-03     67.7720E-03     358.584E-03     60.6410E+06     49.8062E+06     12.7604E+06    -19.9740E+06    -18.1362E+06     10.9227E+06     49.8062E+06     6.58328E+06
             413     65.4142E-03     11.8558E-03     64.3308E-03     335.055E-03    -166.883E-03    -168.173E-03    -166.584E-03     333.615E-03    -167.031E-03     53.2325E-03     351.990E-03     54.2387E+06     37.4981E+06     2.96402E+06    -24.9511E+06    -23.3582E+06     1.37109E+06     37.4981E+06     43.1194E+03
             414     65.2024E-03     11.0071E-03     64.2667E-03     335.916E-03    -166.981E-03    -168.936E-03    -167.400E-03     334.381E-03    -166.981E-03     55.2645E-03     352.732E-03     60.9816E+06     28.4430E+06    -6.23189E+06    -41.9385E+06    -39.5799E+06    -8.59055E+06     28.4430E+06    -1.55940E+06
             415     64.9909E-03     10.1618E-03     64.1915E-03     334.836E-03    -166.480E-03    -168.355E-03    -166.507E-03     333.477E-03    -166.969E-03     51.2986E-03     349.791E-03     65.2300E+06     30.7240E+06    -1.46266E+06    -44.1544E+06    -42.2252E+06    -3.39181E+06     30.7240E+06     4.33849E+06
             416     64.8105E-03     9.31287E-03     64.1379E-03     333.227E-03    -166.010E-03    -167.217E-03    -165.412E-03     332.409E-03    -166.997E-03     40.3606E-03     344.222E-03     60.0700E+06     19.5295E+06    -5.17780E+06    -48.8241E+06    -47.2649E+06    -6.73694E+06     19.5295E+06     6.70205E+06
             417     64.6402E-03     8.46669E-03     64.0833E-03     333.158E-03    -166.053E-03    -167.104E-03    -165.400E-03     332.505E-03    -167.104E-03     35.8432E-03     342.992E-03     57.0555E+06     10.7231E+06    -9.15760E+06    -53.5363E+06    -52.7926E+06    -9.90132E+06     10.7231E+06     492.724E+03
             418     64.4916E-03     7.61783E-03     64.0401E-03     333.562E-03    -166.313E-03    -167.249E-03    -165.842E-03     333.091E-03    -167.249E-03     30.4831E-03     341.756E-03     60.8263E+06     7.00483E+06    -14.3421E+06    -61.5451E+06    -61.3577E+06    -14.5296E+06     7.00483E+06    -847.163E+03
             419     64.3631E-03     6.77124E-03     64.0060E-03     333.839E-03    -166.473E-03    -167.366E-03    -166.118E-03     333.475E-03    -167.356E-03     26.8605E-03     340.491E-03     60.8223E+06    -1.20336E+06    -20.8744E+06    -69.3190E+06    -68.7528E+06    -21.4405E+06    -1.20336E+06     3.20636E+06
             420     64.2440E-03     5.92417E-03     63.9703E-03     334.020E-03    -166.590E-03    -167.430E-03    -166.345E-03     333.766E-03    -167.421E-03     22.2997E-03     339.300E-03     48.9624E+06    -19.2566E+06    -38.0835E+06    -74.3016E+06    -73.6080E+06    -38.7771E+06    -19.2566E+06     3.67089E+06
             421     64.1442E-03     5.07524E-03     63.9431E-03     334.321E-03    -166.684E-03    -167.637E-03    -166.646E-03     334.145E-03    -167.499E-03     18.7081E-03     338.232E-03     39.1842E+06    -37.9639E+06    -65.7161E+06    -82.0801E+06    -78.9458E+06    -68.8504E+06    -37.9639E+06     3.52556E+06
             422     64.0587E-03     4.22936E-03     63.9190E-03     334.313E-03    -166.549E-03    -167.764E-03    -166.534E-03     334.160E-03    -167.626E-03     17.4213E-03     337.172E-03     40.2685E+06    -54.3495E+06    -82.4896E+06    -99.7388E+06    -84.3036E+06    -97.9249E+06    -54.3495E+06     3.39918E+06
             423     63.9908E-03     3.38252E-03     63.9014E-03     334.403E-03    -166.523E-03    -167.880E-03    -166.394E-03     334.274E-03    -167.880E-03     16.0048E-03     336.378E-03     48.3657E+06    -69.5890E+06    -89.8365E+06    -124.474E+06    -90.1104E+06    -124.200E+06    -69.5890E+06     2.42108E+06
             424     63.9315E-03     2.53690E-03     63.8812E-03     335.101E-03    -166.795E-03    -168.306E-03    -166.714E-03     335.020E-03    -168.306E-03     12.4510E-03     336.348E-03     58.4849E+06    -81.9876E+06    -93.9096E+06    -145.260E+06    -94.0074E+06    -145.162E+06    -81.9876E+06     1.96664E+06
             425     63.8925E-03     1.68697E-03     63.8702E-03     336.654E-03    -167.811E-03    -168.843E-03    -167.776E-03     336.619E-03    -168.843E-03     6.91484E-03     337.271E-03     64.5663E+06    -88.9807E+06    -95.3253E+06    -156.477E+06    -93.4770E+06    -156.430E+06    -90.8762E+06     104.302E+03
             426     63.8738E-03     840.994E-06     63.8682E-03     338.588E-03    -168.470E-03    -170.118E-03    -169.821E-03     338.575E-03    -168.754E-03     1.36120E-03     338.973E-03     92.4333E+06    -93.0294E+06    -100.917E+06    -189.145E+06    -96.5467E+06    -189.126E+06    -97.4195E+06    -1.21874E+06
             427     64.8474E-03     14.3799E-03     63.2329E-03     335.522E-03    -164.465E-03    -171.057E-03    -163.614E-03     331.486E-03    -167.872E-03     88.6117E-03     363.912E-03     126.833E+06     130.095E+06     61.2133E+06    -16.2472E+06    -14.8474E+06     59.8135E+06     130.095E+06    -2.32715E+06
             428     64.5396E-03     13.5417E-03     63.1030E-03     340.379E-03    -167.764E-03    -172.615E-03    -168.447E-03     336.211E-03    -167.764E-03     90.8893E-03     372.321E-03     89.7095E+06     72.8964E+06     25.2751E+06    -30.5518E+06    -27.8324E+06     22.5557E+06     72.8964E+06    -910.199E+03
             429     64.2724E-03     12.6915E-03     63.0069E-03     337.369E-03    -167.669E-03    -169.700E-03    -167.149E-03     334.818E-03    -167.669E-03     70.9045E-03     360.554E-03     67.4648E+06     60.3522E+06     22.1840E+06    -17.3665E+06    -13.0982E+06     17.9157E+06     60.3522E+06     6.03456E+06
             430     64.0394E-03     11.8496E-03     62.9336E-03     336.469E-03    -167.602E-03    -168.867E-03    -167.118E-03     334.720E-03    -167.602E-03     59.0656E-03     354.415E-03     56.1315E+06     43.3991E+06     9.03671E+06    -21.2547E+06    -17.9912E+06     5.77325E+06     43.3991E+06     8.49155E+06
             431     63.8264E-03     11.0044E-03     62.8706E-03     337.910E-03    -167.504E-03    -170.406E-03    -168.700E-03     336.203E-03    -167.504E-03     58.6315E-03     355.497E-03     56.1946E+06     28.0609E+06    -3.50725E+06    -36.7050E+06    -33.6929E+06    -6.51933E+06     28.0609E+06     4.86117E+06
             432     63.6099E-03     10.1559E-03     62.7939E-03     337.364E-03    -167.403E-03    -169.962E-03    -168.648E-03     336.051E-03    -167.403E-03     50.6107E-03     352.650E-03     65.8431E+06     28.6803E+06    -1.93809E+06    -46.7211E+06    -42.4037E+06    -6.25551E+06     28.6803E+06    -2.00190E+06
             433     63.4284E-03     9.31176E-03     62.7412E-03     334.691E-03    -166.761E-03    -167.931E-03    -166.491E-03     333.867E-03    -167.376E-03     40.6456E-03     346.314E-03     67.9989E+06     30.8900E+06     1.50406E+06    -46.7310E+06    -43.6617E+06    -1.56524E+06     30.8900E+06    -216.570E+03
             434     63.2588E-03     8.46240E-03     62.6903E-03     333.594E-03    -166.142E-03    -167.451E-03    -165.417E-03     332.868E-03    -167.451E-03     37.9406E-03     343.608E-03     62.5315E+06     20.0524E+06    -1.97585E+06    -50.2941E+06    -47.9035E+06    -4.36644E+06     20.0524E+06     7.01934E+06
             435     63.1068E-03     7.61401E-03     62.6458E-03     334.259E-03    -166.694E-03    -167.566E-03    -166.180E-03     333.746E-03    -167.566E-03     31.8687E-03     342.821E-03     59.1154E+06     4.20267E+06    -13.3945E+06    -61.6373E+06    -59.6145E+06    -15.4173E+06     4.20267E+06     3.03366E+06
             436     62.9713E-03     6.76690E-03     62.6066E-03     335.007E-03    -167.355E-03    -167.652E-03    -166.996E-03     334.639E-03    -167.643E-03     27.0890E-03     342.313E-03     56.1367E+06    -4.96285E+06    -26.0434E+06    -68.2870E+06    -67.5774E+06    -26.7530E+06    -4.96285E+06    -3.21996E+06
             437     62.8538E-03     5.92143E-03     62.5742E-03     334.778E-03    -167.083E-03    -167.695E-03    -166.821E-03     334.507E-03    -167.686E-03     23.1545E-03     340.415E-03     49.9720E+06    -17.0477E+06    -40.8861E+06    -74.1517E+06    -73.0877E+06    -41.9501E+06    -17.0477E+06     551.804E+03
             438     62.7518E-03     5.07655E-03     62.5461E-03     334.335E-03    -166.547E-03    -167.788E-03    -166.367E-03     334.155E-03    -167.788E-03     18.8444E-03     338.522E-03     41.6124E+06    -36.0297E+06    -64.8813E+06    -82.8919E+06    -79.7832E+06    -67.9900E+06    -36.0297E+06     4.58087E+06
             439     62.6675E-03     4.22749E-03     62.5248E-03     334.511E-03    -166.513E-03    -167.998E-03    -166.384E-03     334.381E-03    -167.998E-03     16.0284E-03     337.557E-03     39.7894E+06    -55.3436E+06    -84.1430E+06    -100.109E+06    -85.9406E+06    -98.3109E+06    -55.3436E+06     1.89663E+06
             440     62.5928E-03     3.38038E-03     62.5015E-03     335.095E-03    -166.784E-03    -168.310E-03    -166.680E-03     334.990E-03    -168.310E-03     14.3160E-03     337.068E-03     46.4838E+06    -71.6343E+06    -91.2120E+06    -124.149E+06    -91.2681E+06    -124.093E+06    -71.6343E+06     603.031E+03
             441     62.5358E-03     2.53343E-03     62.4844E-03     335.771E-03    -166.960E-03    -168.811E-03    -166.888E-03     335.698E-03    -168.811E-03     11.8324E-03     336.968E-03     56.1112E+06    -82.2641E+06    -94.3062E+06    -143.270E+06    -94.4782E+06    -143.098E+06    -82.2641E+06     281.182E+03
             442     62.4927E-03     1.68981E-03     62.4698E-03     337.570E-03    -168.051E-03    -169.518E-03    -168.007E-03     337.525E-03    -169.518E-03     7.72160E-03     338.176E-03     63.8360E+06    -89.1139E+06    -98.7533E+06    -157.168E+06    -97.1687E+06    -156.857E+06    -91.0093E+06     768.669E+03
             443     62.4684E-03     846.079E-06     62.4627E-03     340.134E-03    -169.605E-03    -170.529E-03    -169.757E-03     340.114E-03    -170.357E-03     1.86748E-03     340.531E-03     90.8492E+06    -94.7471E+06    -104.151E+06    -189.883E+06    -100.305E+06    -189.651E+06    -98.8257E+06     2.03947E+06
             444     63.4901E-03     14.3946E-03     61.8368E-03     334.127E-03    -165.300E-03    -168.828E-03    -162.338E-03     330.309E-03    -167.971E-03     86.7889E-03     360.832E-03     123.745E+06     133.306E+06     66.2215E+06    -9.32783E+06    -7.18309E+06     64.0767E+06     133.306E+06     5.72522E+06
             445     63.1744E-03     13.5370E-03     61.7070E-03     336.149E-03    -166.903E-03    -169.246E-03    -164.966E-03     332.933E-03    -167.967E-03     79.7643E-03     366.009E-03     79.1411E+06     67.7894E+06     28.0246E+06    -23.2828E+06    -19.8067E+06     24.5485E+06     67.7894E+06    -4.62222E+06
             446     62.9017E-03     12.6919E-03     61.6080E-03     334.937E-03    -166.441E-03    -168.496E-03    -164.796E-03     332.857E-03    -168.061E-03     64.1528E-03     358.109E-03     64.4652E+06     45.8991E+06     9.39555E+06    -28.3610E+06    -23.7118E+06     4.74644E+06     45.8991E+06    -3.75709E+06
             447     62.6668E-03     11.8383E-03     61.5384E-03     336.954E-03    -167.603E-03    -169.352E-03    -167.220E-03     335.378E-03    -168.158E-03     56.0153E-03     354.678E-03     64.2015E+06     45.9317E+06     5.17825E+06    -27.8892E+06    -24.0970E+06     1.38601E+06     45.9317E+06     5.65078E+06
             448     62.4403E-03     10.9913E-03     61.4652E-03     339.376E-03    -168.072E-03    -171.305E-03    -169.731E-03     337.803E-03    -168.072E-03     56.1929E-03     356.799E-03     62.8258E+06     41.1819E+06     2.49343E+06    -31.0690E+06    -28.1967E+06    -378.824E+03     41.1819E+06     9.03127E+06
             449     62.2249E-03     10.1536E-03     61.3909E-03     338.475E-03    -167.881E-03    -170.594E-03    -169.376E-03     337.256E-03    -167.881E-03     48.8347E-03     353.606E-03     60.9399E+06     31.3041E+06     2.58101E+06    -38.3295E+06    -34.0933E+06    -1.65518E+06     31.3041E+06     1.80792E+06
             450     62.0484E-03     9.30627E-03     61.3466E-03     336.425E-03    -167.322E-03    -169.103E-03    -167.854E-03     335.640E-03    -167.787E-03     39.7812E-03     347.918E-03     63.7439E+06     27.1682E+06    -369.248E+03    -45.6133E+06    -43.2063E+06    -2.77617E+06     27.1682E+06    -2.73183E+06
             451     61.8764E-03     8.45875E-03     61.2955E-03     335.729E-03    -167.146E-03    -168.584E-03    -167.279E-03     335.071E-03    -167.792E-03     36.1149E-03     345.462E-03     68.1785E+06     26.5523E+06    -1.78486E+06    -50.9987E+06    -49.1976E+06    -3.58597E+06     26.5523E+06     5.18335E+06
             452     61.7182E-03     7.61299E-03     61.2469E-03     335.208E-03    -167.290E-03    -167.918E-03    -166.981E-03     334.764E-03    -167.783E-03     29.7038E-03     343.484E-03     60.3129E+06     13.8667E+06    -5.78982E+06    -53.6919E+06    -51.6893E+06    -7.79246E+06     13.8667E+06     2.60570E+06
             453     61.5826E-03     6.76756E-03     61.2096E-03     334.918E-03    -167.113E-03    -167.805E-03    -166.788E-03     334.593E-03    -167.805E-03     25.4619E-03     341.934E-03     49.8785E+06    -6.66563E+06    -25.9032E+06    -63.0039E+06    -62.0667E+06    -26.8404E+06    -6.66563E+06    -2.24397E+06
             454     61.4614E-03     5.92040E-03     61.1756E-03     334.877E-03    -166.961E-03    -167.916E-03    -166.722E-03     334.638E-03    -167.916E-03     21.7902E-03     340.329E-03     49.3681E+06    -19.0880E+06    -48.6657E+06    -75.3335E+06    -73.6056E+06    -50.3936E+06    -19.0880E+06     225.407E+03
             455     61.3600E-03     5.07199E-03     61.1500E-03     335.173E-03    -167.143E-03    -168.031E-03    -166.974E-03     335.004E-03    -168.031E-03     18.2774E-03     339.396E-03     45.1759E+06    -30.7687E+06    -66.3436E+06    -80.8399E+06    -78.2487E+06    -68.9348E+06    -30.7687E+06     2.48529E+06
             456     61.2717E-03     4.22791E-03     61.1256E-03     335.595E-03    -167.449E-03    -168.146E-03    -167.374E-03     335.478E-03    -168.104E-03     15.2913E-03     338.704E-03     41.4588E+06    -51.1679E+06    -82.0234E+06    -97.5293E+06    -84.3308E+06    -95.2218E+06    -51.1679E+06     2.71287E+06
             457     61.1990E-03     3.38186E-03     61.1055E-03     335.441E-03    -167.144E-03    -168.297E-03    -167.107E-03     335.361E-03    -168.254E-03     12.5898E-03     337.561E-03     46.7063E+06    -69.7487E+06    -90.4114E+06    -122.658E+06    -90.6190E+06    -122.451E+06    -69.7487E+06     850.096E+03
             458     61.1374E-03     2.53515E-03     61.0849E-03     335.352E-03    -166.645E-03    -168.707E-03    -166.590E-03     335.297E-03    -168.707E-03     10.4124E-03     336.610E-03     55.1181E+06    -84.8432E+06    -95.8201E+06    -144.268E+06    -95.9584E+06    -144.130E+06    -84.8432E+06    -318.825E+03
             459     61.0932E-03     1.68648E-03     61.0699E-03     336.840E-03    -167.101E-03    -169.739E-03    -167.048E-03     336.787E-03    -169.739E-03     10.1968E-03     337.484E-03     62.7858E+06    -94.7088E+06    -101.748E+06    -160.542E+06    -102.135E+06    -160.154E+06    -94.7088E+06     292.198E+03
             460     61.0613E-03     840.749E-06     61.0555E-03     341.161E-03    -169.664E-03    -171.497E-03    -169.765E-03     341.121E-03    -171.356E-03     7.80898E-03     341.574E-03     83.8145E+06    -95.4002E+06    -103.911E+06    -183.084E+06    -102.051E+06    -182.761E+06    -97.5834E+06     806.946E+03
             461     62.1356E-03     14.3902E-03     60.4463E-03     335.840E-03    -166.755E-03    -169.084E-03    -163.813E-03     331.712E-03    -167.899E-03     90.6655E-03     363.617E-03     128.621E+06     136.913E+06     66.2856E+06    -11.3607E+06    -9.28326E+06     64.2082E+06     136.913E+06     6.57123E+06
             462     61.8172E-03     13.5454E-03     60.3149E-03     333.827E-03    -165.790E-03    -168.037E-03    -162.372E-03     330.332E-03    -167.960E-03     82.7144E-03     364.966E-03     79.8490E+06     85.4649E+06     45.2998E+06    -6.43152E+06    -2.82478E+06     41.6931E+06     85.4649E+06     6.63112E+06
             463     61.5440E-03     12.6857E-03     60.2223E-03     335.354E-03    -166.438E-03    -168.916E-03    -165.230E-03     333.288E-03    -168.058E-03     63.0656E-03     359.137E-03     58.1222E+06     39.5569E+06     4.79390E+06    -27.3367E+06    -24.2770E+06     1.73418E+06     39.5569E+06    -4.44648E+06
             464     61.2899E-03     11.8402E-03     60.1353E-03     336.644E-03    -167.082E-03    -169.562E-03    -167.310E-03     335.433E-03    -168.123E-03     49.0458E-03     353.657E-03     60.2986E+06     32.9100E+06    -8.51195E+06    -36.2564E+06    -34.6479E+06    -10.1205E+06     32.9100E+06    -1.38459E+06
             465     61.0639E-03     10.9979E-03     60.0654E-03     336.197E-03    -166.917E-03    -169.280E-03    -166.826E-03     335.004E-03    -168.178E-03     48.8755E-03     352.431E-03     65.1423E+06     42.4405E+06     484.558E+03    -32.4442E+06    -30.2935E+06    -1.66619E+06     42.4405E+06     1.32641E+06
             466     60.8418E-03     10.1445E-03     59.9901E-03     336.363E-03    -167.309E-03    -169.054E-03    -167.139E-03     335.352E-03    -168.214E-03     44.4021E-03     350.980E-03     64.8477E+06     37.4889E+06     2.47891E+06    -37.1841E+06    -34.5719E+06    -133.333E+03     37.4889E+06     3.03252E+06
             467     60.6635E-03     9.30116E-03     59.9462E-03     337.995E-03    -168.035E-03    -169.959E-03    -169.126E-03     337.290E-03    -168.164E-03     37.7461E-03     349.999E-03     63.3878E+06     32.2253E+06     619.382E+03    -40.7061E+06    -39.7384E+06    -348.298E+03     32.2253E+06     5.28432E+06
             468     60.4871E-03     8.46016E-03     59.8925E-03     337.715E-03    -168.019E-03    -169.696E-03    -169.066E-03     337.086E-03    -168.019E-03     35.5489E-03     348.613E-03     62.9457E+06     25.3572E+06    -3.13239E+06    -46.6593E+06    -46.2074E+06    -3.58429E+06     25.3572E+06    -1.18909E+06
             469     60.3343E-03     7.61459E-03     59.8519E-03     335.631E-03    -167.482E-03    -168.149E-03    -167.198E-03     335.140E-03    -167.942E-03     31.2627E-03     344.474E-03     59.8199E+06     13.2294E+06    -9.24394E+06    -54.5102E+06    -53.5173E+06    -10.2369E+06     13.2294E+06    -6.86567E+03
             470     60.1923E-03     6.76597E-03     59.8109E-03     335.204E-03    -167.229E-03    -167.974E-03    -166.854E-03     334.828E-03    -167.974E-03     27.2329E-03     342.218E-03     53.0851E+06    -4.49998E+06    -23.2992E+06    -64.3663E+06    -63.4654E+06    -24.2000E+06    -4.49998E+06     4.45991E+06
             471     60.0724E-03     5.91948E-03     59.7800E-03     335.637E-03    -167.428E-03    -168.209E-03    -167.365E-03     335.397E-03    -168.032E-03     21.8358E-03     341.015E-03     46.2245E+06    -20.4028E+06    -47.0537E+06    -72.1545E+06    -71.2227E+06    -47.9856E+06    -20.4028E+06     327.897E+03
             472     59.9655E-03     5.07458E-03     59.7504E-03     335.799E-03    -167.541E-03    -168.258E-03    -167.563E-03     335.644E-03    -168.081E-03     17.5489E-03     339.893E-03     44.8957E+06    -32.4822E+06    -70.8632E+06    -81.7915E+06    -78.0587E+06    -74.5959E+06    -32.4822E+06    -1.86893E+06
             473     59.8761E-03     4.22739E-03     59.7267E-03     335.918E-03    -167.778E-03    -168.140E-03    -167.705E-03     335.803E-03    -168.098E-03     15.2078E-03     338.913E-03     45.5881E+06    -47.2636E+06    -82.3116E+06    -98.1787E+06    -84.2087E+06    -96.2816E+06    -47.2636E+06     1.85980E+06
             474     59.8013E-03     3.38260E-03     59.7055E-03     336.179E-03    -167.709E-03    -168.470E-03    -168.023E-03     336.093E-03    -168.070E-03     13.0959E-03     338.372E-03     48.4803E+06    -64.9186E+06    -88.6118E+06    -120.034E+06    -88.9918E+06    -119.654E+06    -64.9186E+06     2.51882E+06
             475     59.7431E-03     2.53660E-03     59.6892E-03     336.059E-03    -166.947E-03    -169.112E-03    -167.989E-03     336.013E-03    -168.025E-03     9.20899E-03     337.403E-03     55.4908E+06    -81.9005E+06    -94.2034E+06    -142.090E+06    -94.2871E+06    -142.006E+06    -81.9005E+06     1.51317E+06
             476     59.6961E-03     1.68994E-03     59.6722E-03     335.835E-03    -166.163E-03    -169.671E-03    -167.693E-03     335.811E-03    -168.118E-03     5.64192E-03     336.485E-03     62.7610E+06    -94.1868E+06    -100.029E+06    -159.518E+06    -98.3972E+06    -159.388E+06    -95.9486E+06    -582.071E+03
             477     59.6578E-03     841.449E-06     59.6519E-03     336.745E-03    -167.127E-03    -169.618E-03    -168.457E-03     336.723E-03    -168.265E-03     5.03827E-03     337.089E-03     83.6180E+06    -96.2478E+06    -103.407E+06    -183.197E+06    -99.8262E+06    -182.964E+06    -100.061E+06    -4.11800E+06
             478     60.7866E-03     14.3992E-03     59.0565E-03     337.102E-03    -166.817E-03    -170.285E-03    -165.497E-03     333.420E-03    -167.923E-03     85.8942E-03     364.037E-03     132.564E+06     133.230E+06     60.4785E+06    -19.6787E+06    -17.4054E+06     58.2052E+06     133.230E+06    -4.99511E+06
             479     60.4690E-03     13.5334E-03     58.9351E-03     335.336E-03    -166.812E-03    -168.524E-03    -163.996E-03     331.914E-03    -167.918E-03     82.2884E-03     365.201E-03     93.1389E+06     91.4733E+06     43.1558E+06    -15.8702E+06    -11.3784E+06     38.6640E+06     91.4733E+06     5.58084E+06
             480     60.1673E-03     12.6936E-03     58.8131E-03     336.137E-03    -167.178E-03    -168.959E-03    -166.085E-03     334.013E-03    -167.928E-03     64.0100E-03     358.942E-03     67.6730E+06     52.6599E+06     14.8858E+06    -25.3458E+06    -19.8052E+06     9.34521E+06     52.6599E+06     10.1405E+06
             481     59.9254E-03     11.8508E-03     58.7419E-03     335.681E-03    -166.706E-03    -168.975E-03    -166.321E-03     334.262E-03    -167.940E-03     52.8705E-03     353.497E-03     60.1184E+06     34.5373E+06    -2.92760E+06    -34.6276E+06    -30.7163E+06    -6.83889E+06     34.5373E+06     2.03349E+06
             482     59.6911E-03     10.9959E-03     58.6696E-03     335.510E-03    -166.781E-03    -168.729E-03    -166.151E-03     334.193E-03    -168.042E-03     51.0246E-03     352.996E-03     61.7170E+06     40.7104E+06     420.451E+03    -30.1599E+06    -28.0526E+06    -1.68687E+06     40.7104E+06    -4.28899E+06
             483     59.4724E-03     10.1499E-03     58.5999E-03     335.209E-03    -166.544E-03    -168.665E-03    -166.160E-03     334.320E-03    -168.160E-03     41.6321E-03     350.108E-03     66.2646E+06     38.7370E+06    -988.457E+03    -37.5130E+06    -35.6001E+06    -2.90130E+06     38.7370E+06     52.9455E+03
             484     59.2729E-03     9.30067E-03     58.5387E-03     335.612E-03    -166.559E-03    -169.054E-03    -166.730E-03     334.970E-03    -168.240E-03     35.9007E-03     347.978E-03     64.0284E+06     29.6473E+06    -3.64161E+06    -44.0382E+06    -43.0024E+06    -4.67742E+06     29.6473E+06     2.32732E+06
             485     59.1006E-03     8.45476E-03     58.4927E-03     336.510E-03    -167.354E-03    -169.156E-03    -167.642E-03     335.912E-03    -168.271E-03     34.5315E-03     347.550E-03     60.1395E+06     20.2625E+06    -5.40885E+06    -48.3302E+06    -47.0325E+06    -6.70654E+06     20.2625E+06    -350.321E+03
             486     58.9463E-03     7.60842E-03     58.4532E-03     336.519E-03    -168.025E-03    -168.494E-03    -167.726E-03     336.019E-03    -168.293E-03     31.6684E-03     345.460E-03     61.2890E+06     12.4498E+06    -12.2431E+06    -57.2884E+06    -55.5744E+06    -13.9570E+06     12.4498E+06     4.39346E+06
             487     58.8040E-03     6.76371E-03     58.4137E-03     336.574E-03    -168.079E-03    -168.494E-03    -167.887E-03     336.172E-03    -168.285E-03     28.2609E-03     344.158E-03     57.6779E+06    -390.191E+03    -22.2314E+06    -65.7085E+06    -64.8844E+06    -23.0556E+06    -390.191E+03     4.04598E+06
             488     58.6776E-03     5.91870E-03     58.3783E-03     336.739E-03    -168.212E-03    -168.528E-03    -168.247E-03     336.473E-03    -168.225E-03     23.1080E-03     342.495E-03     45.7964E+06    -18.8951E+06    -43.3504E+06    -70.1080E+06    -69.8239E+06    -43.6344E+06    -18.8951E+06     96.7776E+03
             489     58.5720E-03     5.07342E-03     58.3519E-03     336.561E-03    -167.987E-03    -168.574E-03    -168.223E-03     336.382E-03    -168.158E-03     18.9207E-03     340.714E-03     40.4255E+06    -37.4491E+06    -71.3146E+06    -82.1817E+06    -77.4381E+06    -76.0581E+06    -37.4491E+06    -1.31599E+06
             490     58.4819E-03     4.22828E-03     58.3288E-03     336.444E-03    -167.823E-03    -168.620E-03    -168.221E-03     336.314E-03    -168.093E-03     16.1846E-03     339.497E-03     44.3639E+06    -51.2768E+06    -83.8008E+06    -101.193E+06    -84.8187E+06    -100.175E+06    -51.2768E+06    -1.89705E+06
             491     58.4037E-03     3.38133E-03     58.3058E-03     337.035E-03    -167.776E-03    -169.259E-03    -169.074E-03     336.949E-03    -167.875E-03     12.9586E-03     339.133E-03     48.9767E+06      -65.55E+06    -90.9910E+06    -121.517E+06    -91.5524E+06    -120.956E+06      -65.55E+06     422.144E+03
             492     58.3427E-03     2.53841E-03     58.2874E-03     337.395E-03    -167.171E-03    -170.224E-03    -170.181E-03     337.353E-03    -167.171E-03     9.06776E-03     338.596E-03     53.8651E+06    -78.7059E+06    -96.6669E+06    -138.968E+06    -96.7427E+06    -138.892E+06    -78.7059E+06     1.42647E+06
             493     58.2975E-03     1.69752E-03     58.2728E-03     335.378E-03    -165.609E-03    -169.769E-03    -169.740E-03     335.349E-03    -165.609E-03     6.25806E-03     335.885E-03     61.6384E+06    -89.5400E+06    -101.293E+06    -156.102E+06    -99.7672E+06    -155.865E+06    -91.3018E+06     1.63005E+06
             494     58.2652E-03     856.266E-06     58.2589E-03     329.350E-03    -163.261E-03    -166.089E-03    -166.055E-03     329.316E-03    -163.261E-03     6.04720E-03     329.582E-03     82.7102E+06    -103.261E+06    -109.967E+06    -189.012E+06    -106.804E+06    -188.362E+06    -107.074E+06     2.21316E+06
             495     59.4312E-03     14.3854E-03     57.6639E-03     338.864E-03    -167.717E-03    -171.147E-03    -167.616E-03     335.514E-03    -167.898E-03     82.2509E-03     365.649E-03     124.332E+06     128.752E+06     60.4983E+06    -14.6702E+06    -13.2429E+06     59.0710E+06     128.752E+06    -6.35812E+06
             496     59.1137E-03     13.5530E-03     57.5391E-03     337.814E-03    -167.499E-03    -170.315E-03    -166.679E-03     334.392E-03    -167.713E-03     82.8912E-03     367.262E-03     90.3779E+06     70.6646E+06     24.1957E+06    -33.4866E+06    -29.1243E+06     19.8334E+06     70.6646E+06    -4.45664E+06
             497     58.8089E-03     12.6956E-03     57.4222E-03     334.164E-03    -166.220E-03    -167.943E-03    -164.039E-03     331.809E-03    -167.770E-03     67.2214E-03     357.327E-03     73.6531E+06     53.4121E+06     11.9547E+06    -31.3654E+06    -25.6684E+06     6.25767E+06     53.4121E+06     4.85093E+06
             498     58.5568E-03     11.8372E-03     57.3479E-03     334.972E-03    -166.566E-03    -168.406E-03    -165.629E-03     333.530E-03    -167.901E-03     53.1106E-03     353.407E-03     66.0259E+06     48.6082E+06     6.81135E+06    -27.2914E+06    -22.5976E+06     2.11753E+06     48.6082E+06     4.77054E+06
             499     58.3151E-03     10.9973E-03     57.2687E-03     336.352E-03    -167.383E-03    -168.970E-03    -167.166E-03     335.126E-03    -167.960E-03     49.1129E-03     353.511E-03     66.5897E+06     47.4215E+06     3.46860E+06    -29.0991E+06    -25.8590E+06     228.470E+03     47.4215E+06     4.17412E+06
             500     58.0941E-03     10.1529E-03     57.2000E-03     334.760E-03    -166.229E-03    -168.531E-03    -165.803E-03     333.830E-03    -168.026E-03     42.8980E-03     349.064E-03     64.8015E+06     45.2161E+06     4.84645E+06    -29.3659E+06    -27.7267E+06     3.20725E+06     45.2161E+06     5.60294E+06
             501     57.9025E-03     9.30472E-03     57.1499E-03     333.858E-03    -165.698E-03    -168.160E-03    -164.969E-03     333.129E-03    -168.160E-03     38.0419E-03     345.849E-03     58.0851E+06     25.1610E+06    -4.94706E+06    -41.6464E+06    -40.9548E+06    -5.63871E+06     25.1610E+06     947.826E+03
             502     57.7150E-03     8.45287E-03     57.0926E-03     334.863E-03    -166.497E-03    -168.367E-03    -165.951E-03     334.318E-03    -168.367E-03     32.6761E-03     345.182E-03     59.8650E+06     11.4117E+06    -15.2169E+06    -57.1201E+06    -55.9902E+06    -16.3467E+06     11.4117E+06    -517.713E+03
             503     57.5584E-03     7.60761E-03     57.0534E-03     336.436E-03    -167.784E-03    -168.651E-03    -167.498E-03     336.019E-03    -168.521E-03     28.9536E-03     345.248E-03     62.7748E+06     10.8670E+06    -16.8534E+06    -60.9800E+06    -59.9713E+06    -17.8620E+06     10.8670E+06     1.66112E+06
             504     57.4112E-03     6.76209E-03     57.0116E-03     337.334E-03    -168.404E-03    -168.930E-03    -168.451E-03     336.963E-03    -168.513E-03     27.2442E-03     345.040E-03     55.6293E+06     1.62819E+06    -21.0795E+06    -61.7190E+06    -61.4849E+06    -21.3137E+06     1.62819E+06     894.076E+03
             505     57.2856E-03     5.91664E-03     56.9793E-03     337.168E-03    -168.400E-03    -168.768E-03    -168.494E-03     336.928E-03    -168.434E-03     21.8021E-03     342.724E-03     45.5464E+06    -15.4936E+06    -40.8860E+06    -66.8264E+06    -66.5874E+06     -41.125E+06    -15.4936E+06     1.16697E+06
             506     57.1757E-03     5.07128E-03     56.9503E-03     337.251E-03    -168.286E-03    -168.965E-03    -168.768E-03     337.088E-03    -168.320E-03     18.0406E-03     341.396E-03     39.1525E+06    -36.1151E+06    -68.6393E+06    -79.4781E+06    -75.0873E+06    -73.0300E+06    -36.1151E+06     1.03681E+06
             507     57.0856E-03     4.22673E-03     56.9290E-03     338.017E-03    -168.046E-03    -169.971E-03    -169.850E-03     337.896E-03    -168.046E-03     15.5441E-03     341.141E-03     42.9995E+06    -53.2358E+06    -83.3401E+06    -101.697E+06    -84.0109E+06    -101.026E+06    -53.2358E+06    -125.584E+03
             508     57.0046E-03     3.38464E-03     56.9041E-03     337.497E-03    -167.513E-03    -169.983E-03    -169.910E-03     337.423E-03    -167.513E-03     11.9547E-03     339.424E-03     48.7936E+06    -68.5856E+06    -92.0013E+06    -124.284E+06    -92.7502E+06    -123.535E+06    -68.5856E+06    -373.402E+03
             509     56.9432E-03     2.54026E-03     56.8865E-03     335.877E-03    -166.671E-03    -169.205E-03    -169.041E-03     335.827E-03    -166.786E-03     10.0239E-03     336.942E-03     53.5676E+06    -82.7745E+06    -97.8402E+06    -141.727E+06    -97.9364E+06    -141.631E+06    -82.7745E+06    -96.7780E+03
             510     56.8974E-03     1.69539E-03     56.8722E-03     334.010E-03    -165.571E-03    -168.439E-03    -168.135E-03     333.968E-03    -165.833E-03     8.96203E-03     334.504E-03     61.8162E+06    -91.3442E+06    -101.739E+06    -157.583E+06    -101.964E+06    -157.358E+06    -91.3442E+06     1.99179E+06
             511     56.8801E-03     846.763E-06     56.8738E-03     330.785E-03    -164.243E-03    -166.542E-03    -166.356E-03     330.745E-03    -164.389E-03     5.72940E-03     331.095E-03     83.7903E+06    -96.0373E+06    -102.061E+06    -182.532E+06    -101.744E+06    -181.976E+06    -96.9104E+06     3.50464E+06
             512     58.0707E-03     14.3962E-03     56.2579E-03     338.273E-03    -166.972E-03    -171.302E-03    -167.132E-03     334.987E-03    -167.855E-03     81.3510E-03     366.883E-03     122.037E+06     132.241E+06     63.1988E+06    -8.60560E+06    -8.33260E+06     62.9259E+06     132.241E+06     2.48006E+06
             513     57.7498E-03     13.5403E-03     56.1400E-03     337.372E-03    -166.734E-03    -170.638E-03    -166.251E-03     333.902E-03    -167.651E-03     83.4486E-03     369.212E-03     76.0173E+06     67.0343E+06     26.7310E+06    -20.6431E+06    -17.2562E+06     23.3440E+06     67.0343E+06    -5.71291E+06
             514     57.4597E-03     12.6945E-03     56.0398E-03     336.469E-03    -166.823E-03    -169.646E-03    -166.363E-03     333.986E-03    -167.624E-03     69.4923E-03     360.738E-03     59.8734E+06     37.1960E+06    -1.31782E+06    -31.2396E+06    -27.8048E+06    -4.75262E+06     37.1960E+06    -8.15129E+06
             515     57.1868E-03     11.8538E-03     55.9448E-03     335.259E-03    -166.185E-03    -169.074E-03    -166.082E-03     333.796E-03    -167.714E-03     53.4729E-03     353.165E-03     64.8693E+06     43.4566E+06    -3.77454E+06    -30.3939E+06    -28.7959E+06    -5.37257E+06     43.4566E+06     781.340E+03
             516     56.9471E-03     11.0026E-03     55.8741E-03     333.426E-03    -165.223E-03    -168.204E-03    -164.276E-03     332.157E-03    -167.880E-03     49.8187E-03     349.879E-03     69.3198E+06     50.7969E+06     4.59614E+06    -28.7886E+06    -25.8087E+06     1.61632E+06     50.7969E+06     3.86740E+06
             517     56.7224E-03     10.1489E-03     55.8070E-03     334.035E-03    -165.866E-03    -168.170E-03    -164.841E-03     332.930E-03    -168.090E-03     46.6503E-03     348.759E-03     68.2913E+06     43.9825E+06     3.22166E+06    -34.8037E+06    -32.1616E+06     579.542E+03     43.9825E+06     5.79721E+06
             518     56.5220E-03     9.30042E-03     55.7516E-03     335.769E-03    -167.329E-03    -168.440E-03    -166.762E-03     334.999E-03    -168.237E-03     39.1326E-03     347.470E-03     65.9271E+06     37.7191E+06     1.54945E+06    -38.3385E+06    -36.0525E+06    -736.519E+03     37.7191E+06     8.17273E+06
             519     56.3364E-03     8.45695E-03     55.6980E-03     335.337E-03    -166.900E-03    -168.437E-03    -166.490E-03     334.803E-03    -168.314E-03     32.4279E-03     345.151E-03     61.3147E+06     22.0070E+06    -7.13509E+06    -48.2432E+06    -46.4162E+06    -8.96209E+06     22.0070E+06     3.88765E+06
             520     56.1715E-03     7.60752E-03     55.6540E-03     335.824E-03    -167.268E-03    -168.557E-03    -167.025E-03     335.416E-03    -168.390E-03     28.6084E-03     344.573E-03     54.1984E+06     4.23311E+06    -16.8278E+06    -57.1995E+06    -56.0841E+06    -17.9431E+06     4.23311E+06    -2.52457E+06
             521     56.0209E-03     6.76132E-03     55.6114E-03     336.898E-03    -168.096E-03    -168.801E-03    -168.161E-03     336.587E-03    -168.427E-03     24.7086E-03     344.136E-03     49.8646E+06     -5.5289E+06    -24.8746E+06    -62.0871E+06    -61.4882E+06    -25.4735E+06     -5.5289E+06    -2.04605E+06
             522     55.8899E-03     5.91750E-03     55.5758E-03     336.850E-03    -168.144E-03    -168.706E-03    -168.263E-03     336.662E-03    -168.399E-03     19.3125E-03     342.014E-03      45.906E+06    -18.1872E+06    -44.0628E+06    -70.4866E+06    -70.0713E+06    -44.4781E+06    -18.1872E+06     2.24101E+06
             523     55.7844E-03     5.07217E-03     55.5534E-03     337.708E-03    -168.221E-03    -169.487E-03    -169.304E-03     337.559E-03    -168.255E-03     17.3732E-03     341.833E-03     41.7072E+06    -35.1090E+06    -67.8345E+06    -81.8832E+06    -77.6720E+06    -72.0458E+06    -35.1090E+06     3.56443E+06
             524     55.6823E-03     4.22864E-03     55.5215E-03     338.318E-03    -167.843E-03    -170.474E-03    -170.365E-03     338.208E-03    -167.843E-03     14.6757E-03     341.405E-03     42.0078E+06    -53.8684E+06    -83.2467E+06    -101.328E+06    -85.0516E+06    -99.5231E+06    -53.8684E+06     3.36888E+06
             525     55.6076E-03     3.38575E-03     55.5044E-03     336.663E-03    -167.274E-03    -169.389E-03    -169.329E-03     336.603E-03    -167.274E-03     10.9646E-03     338.472E-03     46.8187E+06    -69.6859E+06    -89.7357E+06    -122.764E+06    -90.1048E+06    -122.395E+06    -69.6859E+06     623.979E+03
             526     55.5476E-03     2.54014E-03     55.4895E-03     334.137E-03    -166.581E-03    -167.556E-03    -167.155E-03     334.093E-03    -166.938E-03     9.21051E-03     335.126E-03     53.7858E+06    -83.0055E+06    -94.2374E+06    -141.320E+06    -94.3234E+06    -141.234E+06    -83.0055E+06    -361.449E+03
             527     55.5063E-03     1.69073E-03     55.4805E-03     333.420E-03    -166.315E-03    -167.106E-03    -166.292E-03     333.397E-03    -167.106E-03     6.12386E-03     333.870E-03     62.3180E+06    -91.9561E+06    -99.6940E+06    -157.766E+06    -98.0875E+06    -157.530E+06    -93.7981E+06    -1.31367E+06
             528     55.4805E-03     845.426E-06     55.4740E-03     334.938E-03    -166.847E-03    -168.091E-03    -167.650E-03     334.931E-03    -167.281E-03     1.03477E-03     335.229E-03     84.2506E+06    -93.3431E+06    -100.073E+06    -180.708E+06    -97.6578E+06    -180.408E+06    -96.0581E+06    -3.94147E+06
             529     56.7275E-03     14.3943E-03     54.8709E-03     338.213E-03    -167.182E-03    -171.030E-03    -167.098E-03     334.983E-03    -167.885E-03     80.5005E-03     365.830E-03     128.450E+06     143.363E+06     68.2147E+06    -4.90201E+06    -4.65548E+06     67.9682E+06     143.363E+06     2.22188E+06
             530     56.4011E-03     13.5441E-03     54.7507E-03     337.097E-03    -166.951E-03    -170.146E-03    -166.180E-03     333.834E-03    -167.654E-03     80.8657E-03     366.955E-03     75.6823E+06     75.1715E+06     34.7111E+06    -12.0942E+06    -7.10930E+06     29.7263E+06     75.1715E+06     2.55299E+06
             531     56.0884E-03     12.6972E-03     54.6323E-03     336.438E-03    -166.765E-03    -169.672E-03    -166.345E-03     333.937E-03    -167.591E-03     70.7499E-03     359.215E-03     52.8400E+06     35.4100E+06     563.307E+03    -24.4841E+06    -19.4002E+06    -4.52062E+06     35.4100E+06     46.6598E+03
             532     55.8239E-03     11.8474E-03     54.5523E-03     334.242E-03    -165.470E-03    -168.772E-03    -164.710E-03     332.446E-03    -167.736E-03     59.4467E-03     351.722E-03     57.9605E+06     37.0234E+06    -5.89900E+06    -28.5951E+06    -26.8931E+06    -7.60103E+06     37.0234E+06    -5.13072E+06
             533     55.5838E-03     10.9961E-03     54.4853E-03     333.592E-03    -165.379E-03    -168.214E-03    -164.183E-03     332.139E-03    -167.957E-03     53.6994E-03     350.317E-03     63.2055E+06     35.4202E+06    -6.00269E+06    -37.1956E+06    -34.7510E+06    -8.44728E+06     35.4202E+06    -7.65835E+06
             534     55.3522E-03     10.1472E-03     54.4141E-03     335.712E-03    -167.030E-03    -168.682E-03    -166.368E-03     334.535E-03    -168.168E-03     48.1413E-03     351.261E-03     69.8906E+06     39.2949E+06    -4.57806E+06    -41.2359E+06    -39.5441E+06    -6.26983E+06     39.2949E+06    -943.604E+03
             535     55.1370E-03     9.30345E-03     54.3464E-03     336.568E-03    -167.947E-03    -168.621E-03    -167.626E-03     335.867E-03    -168.240E-03     37.3372E-03     348.247E-03     71.5167E+06      40.856E+06    -967.070E+03    -41.5979E+06    -39.6572E+06    -2.90774E+06      40.856E+06     6.82635E+06
             536     54.9576E-03     8.45599E-03     54.3031E-03     336.400E-03    -167.445E-03    -168.955E-03    -167.695E-03     335.895E-03    -168.200E-03     31.9093E-03     346.341E-03     61.5451E+06     29.3932E+06    -863.536E+03    -41.2117E+06    -39.6329E+06    -2.44230E+06     29.3932E+06     5.70563E+06
             537     54.7864E-03     7.61046E-03     54.2553E-03     336.629E-03    -167.665E-03    -168.964E-03    -168.095E-03     336.220E-03    -168.125E-03     28.6215E-03     345.183E-03     53.4409E+06     10.2457E+06    -8.57095E+06    -49.8664E+06    -46.7875E+06    -11.6499E+06     10.2457E+06     4.74344E+06
             538     54.6298E-03     6.76643E-03     54.2091E-03     336.019E-03    -167.741E-03    -168.278E-03    -167.688E-03     335.759E-03    -168.072E-03     22.5399E-03     342.657E-03     49.2361E+06    -9.11515E+06    -24.5839E+06    -64.1154E+06    -61.1019E+06    -27.5974E+06    -9.11515E+06     4.14283E+06
             539     54.5030E-03     5.91801E-03     54.1808E-03     335.926E-03    -167.731E-03    -168.195E-03    -167.700E-03     335.763E-03    -168.062E-03     18.1174E-03     341.144E-03     43.9069E+06    -24.5957E+06    -48.3086E+06    -74.2181E+06    -73.6620E+06    -48.8647E+06    -24.5957E+06     2.20377E+06
             540     54.3842E-03     5.07325E-03     54.1471E-03     336.867E-03    -167.979E-03    -168.888E-03    -168.730E-03     336.709E-03    -167.979E-03     17.8665E-03     341.211E-03     41.7021E+06    -35.9939E+06    -69.2028E+06    -82.5145E+06    -79.0968E+06    -72.6205E+06    -35.9939E+06     3.09093E+06
             541     54.2870E-03     4.23035E-03     54.1219E-03     336.852E-03    -167.714E-03    -169.138E-03    -169.018E-03     336.732E-03    -167.714E-03     15.3242E-03     339.901E-03     40.0074E+06    -53.2238E+06    -81.8317E+06    -98.1585E+06    -83.5631E+06    -96.4271E+06    -53.2238E+06     2.63999E+06
             542     54.2092E-03     3.38451E-03     54.1034E-03     335.985E-03    -167.377E-03    -168.608E-03    -168.552E-03     335.930E-03    -167.377E-03     10.3832E-03     337.782E-03     44.1240E+06    -69.3341E+06    -88.6319E+06    -119.502E+06    -88.6785E+06    -119.455E+06    -69.3341E+06     772.316E+03
             543     54.1555E-03     2.53856E-03     54.0959E-03     334.614E-03    -166.887E-03    -167.727E-03    -167.445E-03     334.589E-03    -167.144E-03     6.79772E-03     335.663E-03     52.8791E+06    -81.2209E+06    -93.7924E+06    -139.093E+06    -93.9349E+06    -138.950E+06    -81.2209E+06    -156.065E+03
             544     54.1101E-03     1.69366E-03     54.0836E-03     333.477E-03    -166.031E-03    -167.446E-03    -166.012E-03     333.458E-03    -167.446E-03     5.53327E-03     333.913E-03     61.8643E+06    -90.8936E+06    -97.7641E+06    -155.842E+06    -96.3391E+06    -155.425E+06    -92.7355E+06    -1.19579E+06
             545     54.0855E-03     844.963E-06     54.0789E-03     335.955E-03    -167.151E-03    -168.805E-03    -167.402E-03     335.933E-03    -168.531E-03     5.59074E-03     336.173E-03     86.8647E+06    -98.4018E+06    -103.915E+06    -187.867E+06    -101.090E+06    -187.469E+06    -101.625E+06    -664.836E+03
             546     55.3765E-03     14.3901E-03     53.4742E-03     337.668E-03    -167.584E-03    -170.084E-03    -166.773E-03     334.639E-03    -167.866E-03     77.6965E-03     364.960E-03     128.603E+06     138.986E+06     62.7829E+06    -9.42166E+06    -9.12313E+06     62.4844E+06     138.986E+06    -3.31132E+06
             547     55.0415E-03     13.5482E-03     53.3480E-03     337.619E-03    -167.662E-03    -169.957E-03    -166.588E-03     334.250E-03    -167.662E-03     82.3219E-03     366.510E-03     83.4895E+06     76.1298E+06     28.9440E+06    -20.0686E+06    -17.2474E+06     26.1228E+06     76.1298E+06     3.42442E+06
             548     54.7425E-03     12.6954E-03     53.2500E-03     334.697E-03    -166.707E-03    -167.990E-03    -164.524E-03     332.186E-03    -167.662E-03     70.3456E-03     356.377E-03     58.6789E+06     44.4408E+06     5.52386E+06    -22.4499E+06    -18.6412E+06     1.71515E+06     44.4408E+06     5.54466E+06
             549     54.4568E-03     11.8417E-03     53.1537E-03     333.916E-03    -166.095E-03    -167.821E-03    -164.605E-03     332.426E-03    -167.821E-03     53.4273E-03     350.636E-03     53.7891E+06     36.8348E+06    -2.58366E+06    -24.1160E+06    -21.7264E+06    -4.97322E+06     36.8348E+06    -1.40183E+06
             550     54.2211E-03     10.9953E-03     53.0945E-03     335.986E-03    -167.167E-03    -168.819E-03    -166.884E-03     334.821E-03    -167.937E-03     48.0776E-03     351.602E-03     59.6686E+06     35.1833E+06    -4.65515E+06    -33.1508E+06    -30.2330E+06    -7.57291E+06     35.1833E+06    -2.35810E+06
             551     53.9714E-03     10.1512E-03     53.0082E-03     336.500E-03    -167.473E-03    -169.027E-03    -167.511E-03     335.479E-03    -167.968E-03     44.6856E-03     350.621E-03     64.6557E+06     35.1853E+06    -5.43643E+06    -39.2851E+06    -37.2851E+06    -7.43640E+06     35.1853E+06    -978.749E+03
             552     53.7648E-03     9.30343E-03     52.9538E-03     335.219E-03    -167.050E-03    -168.169E-03    -166.596E-03     334.588E-03    -167.991E-03     35.4671E-03     346.661E-03     63.8090E+06     27.7829E+06    -8.71446E+06    -45.7413E+06    -44.7873E+06    -9.66852E+06     27.7829E+06    -3.27693E+06
             553     53.5726E-03     8.45677E-03     52.9009E-03     336.711E-03    -167.546E-03    -169.165E-03    -168.184E-03     336.177E-03    -167.992E-03     32.8284E-03     347.256E-03     62.4904E+06     23.3832E+06    -8.10739E+06    -48.5736E+06    -47.2049E+06    -9.47615E+06     23.3832E+06     1.24214E+06
             554     53.3984E-03     7.61460E-03     52.8527E-03     337.388E-03    -167.852E-03    -169.536E-03    -169.139E-03     336.990E-03    -167.852E-03     28.0748E-03     346.130E-03     62.0673E+06     13.9173E+06    -13.0512E+06    -56.8601E+06    -53.7191E+06    -16.1921E+06     13.9173E+06     8.75785E+06
             555     53.2460E-03     6.76695E-03     52.8142E-03     335.607E-03    -167.402E-03    -168.205E-03    -167.676E-03     335.369E-03    -167.693E-03     21.6521E-03     342.124E-03     55.0552E+06    -244.975E+03    -19.5338E+06    -62.1493E+06    -58.6513E+06    -23.0317E+06    -244.975E+03     10.1151E+06
             556     53.1107E-03     5.92298E-03     52.7794E-03     335.260E-03    -167.325E-03    -167.936E-03    -167.467E-03     335.083E-03    -167.616E-03     18.8159E-03     340.499E-03     43.1546E+06    -18.5870E+06    -39.4471E+06    -67.2088E+06    -64.8647E+06    -41.7911E+06    -18.5870E+06     6.26540E+06
             557     52.9947E-03     5.07650E-03     52.7510E-03     335.617E-03    -167.529E-03    -168.088E-03    -167.943E-03     335.471E-03    -167.529E-03     16.8222E-03     339.834E-03     38.1332E+06    -37.4086E+06    -68.2945E+06    -79.5392E+06    -75.5924E+06    -72.2412E+06    -37.4086E+06     1.88949E+06
             558     52.8899E-03     4.22798E-03     52.7206E-03     334.968E-03    -167.142E-03    -167.825E-03    -167.441E-03     334.885E-03    -167.444E-03     11.7255E-03     337.758E-03     40.6014E+06    -50.3310E+06    -81.9635E+06    -95.4583E+06    -82.3695E+06    -95.0522E+06    -50.3310E+06     1.26819E+06
             559     52.8154E-03     3.38300E-03     52.7070E-03     334.750E-03    -166.806E-03    -167.944E-03    -167.328E-03     334.713E-03    -167.384E-03     8.02458E-03     336.489E-03     44.9544E+06    -65.6425E+06    -86.9427E+06    -116.516E+06    -87.1187E+06    -116.340E+06    -65.6425E+06     1.93869E+06
             560     52.7542E-03     2.53957E-03     52.6930E-03     335.203E-03    -166.923E-03    -168.280E-03    -167.971E-03     335.185E-03    -167.214E-03     5.51588E-03     336.340E-03     54.7845E+06    -81.1166E+06    -91.3307E+06    -140.034E+06    -91.4678E+06    -139.896E+06    -81.1166E+06     95.6618E+03
             561     52.7222E-03     1.69166E-03     52.6950E-03     334.762E-03    -165.918E-03    -168.844E-03    -167.939E-03     334.744E-03    -166.804E-03     2.60908E-03     335.391E-03     63.8241E+06    -91.2714E+06    -96.1616E+06    -157.351E+06    -96.3515E+06    -157.161E+06    -91.2714E+06     250.544E+03
             562     52.6853E-03     842.967E-06     52.6786E-03     333.367E-03    -165.157E-03    -168.210E-03    -167.090E-03     333.341E-03    -166.251E-03     2.69518E-03     333.770E-03     90.7122E+06    -93.3104E+06     -98.099E+06    -186.314E+06    -95.3029E+06    -186.163E+06    -96.2566E+06     2.80155E+06
             563     54.0261E-03     14.3967E-03     52.0726E-03     335.229E-03    -166.777E-03    -168.452E-03    -164.224E-03     332.023E-03    -167.799E-03     79.6933E-03     363.373E-03     127.274E+06     134.887E+06     59.0514E+06    -11.9894E+06    -11.4309E+06     58.4929E+06     134.887E+06    -1.27424E+06
             564     53.6957E-03     13.5406E-03     51.9603E-03     337.096E-03    -167.701E-03    -169.395E-03    -166.132E-03     333.833E-03    -167.701E-03     80.9547E-03     366.591E-03     83.8326E+06     76.6044E+06     26.6562E+06    -20.0725E+06    -19.9144E+06     26.4981E+06     76.6044E+06    -2.23498E+06
             565     53.3800E-03     12.6949E-03     51.8485E-03     336.729E-03    -167.505E-03    -169.224E-03    -166.756E-03     334.390E-03    -167.634E-03     67.9266E-03     358.702E-03     61.8451E+06     43.8142E+06     3.65822E+06    -27.3303E+06    -24.2579E+06     585.843E+03     43.8142E+06    -2.90362E+06
             566     53.1061E-03     11.8514E-03     51.7669E-03     335.877E-03    -167.223E-03    -168.654E-03    -166.854E-03     334.478E-03    -167.625E-03     52.4506E-03     353.007E-03     58.9889E+06     35.4039E+06    -5.66327E+06    -31.9653E+06    -27.4944E+06    -10.1341E+06     35.4039E+06     1.48597E+06
             567     52.8479E-03     11.0025E-03     51.6899E-03     336.122E-03    -167.347E-03    -168.775E-03    -167.305E-03     334.925E-03    -167.620E-03     48.7505E-03     352.348E-03     58.3579E+06     37.8891E+06    -3.36489E+06    -28.7380E+06    -26.3043E+06    -5.79857E+06     37.8891E+06     5.92927E+06
             568     52.6034E-03     10.1561E-03     51.6137E-03     335.481E-03    -167.096E-03    -168.385E-03    -166.915E-03     334.507E-03    -167.591E-03     43.6520E-03     349.589E-03     55.8043E+06     29.1851E+06    -5.95296E+06    -35.0603E+06    -33.7100E+06    -7.30331E+06     29.1851E+06     885.888E+03
             569     52.3922E-03     9.30759E-03     51.5588E-03     335.212E-03    -166.949E-03    -168.264E-03    -167.010E-03     334.606E-03    -167.596E-03     34.7574E-03     346.303E-03     58.2935E+06     21.0527E+06    -11.1987E+06    -46.1995E+06    -44.4133E+06    -12.9849E+06     21.0527E+06    -1.18949E+06
             570     52.1920E-03     8.46063E-03     51.5017E-03     336.118E-03    -167.424E-03    -168.694E-03    -168.053E-03     335.629E-03    -167.576E-03     31.2372E-03     346.015E-03     64.6474E+06     21.1211E+06    -11.2874E+06    -53.2948E+06    -50.5527E+06    -14.0295E+06     21.1211E+06     1.25169E+06
             571     52.0102E-03     7.61391E-03     51.4498E-03     335.748E-03    -167.234E-03    -168.514E-03    -167.945E-03     335.418E-03    -167.473E-03     25.3018E-03     343.870E-03     63.4524E+06     15.8438E+06    -15.3840E+06    -57.1502E+06    -55.6812E+06    -16.8530E+06     15.8438E+06     1.94546E+06
             572     51.8603E-03     6.77260E-03     51.4162E-03     335.093E-03    -166.932E-03    -168.161E-03    -167.517E-03     334.870E-03    -167.354E-03     21.1157E-03     341.557E-03     57.8127E+06     4.15964E+06    -22.1986E+06    -62.0085E+06    -60.9009E+06    -23.3062E+06     4.15964E+06     5.05977E+06
             573     51.7243E-03     5.92308E-03     51.3840E-03     335.226E-03    -167.022E-03    -168.204E-03    -167.821E-03     335.025E-03    -167.204E-03     20.0213E-03     340.606E-03     48.4080E+06    -11.5159E+06    -32.6123E+06    -66.6638E+06    -63.9647E+06    -35.3114E+06    -11.5159E+06     7.95508E+06
             574     51.5992E-03     5.07888E-03     51.3487E-03     334.946E-03    -167.003E-03    -167.944E-03    -167.808E-03     334.810E-03    -167.003E-03     16.2328E-03     339.033E-03     38.8736E+06    -34.0681E+06    -59.8514E+06    -77.6267E+06    -72.4667E+06    -65.0113E+06    -34.0681E+06     4.95305E+06
             575     51.5021E-03     4.23619E-03     51.3276E-03     333.625E-03    -166.451E-03    -167.175E-03    -166.656E-03     333.554E-03    -166.898E-03     11.0685E-03     336.288E-03     39.2163E+06    -52.1258E+06    -81.3823E+06    -96.1921E+06    -82.2088E+06    -95.3656E+06    -52.1258E+06     1.18754E+06
             576     51.4212E-03     3.38680E-03     51.3096E-03     333.141E-03    -166.167E-03    -166.974E-03    -166.132E-03     333.106E-03    -166.974E-03     7.54737E-03     334.863E-03     45.0888E+06    -64.7565E+06    -87.2827E+06    -116.090E+06    -87.4375E+06    -115.935E+06    -64.7565E+06     623.096E+03
             577     51.3617E-03     2.53614E-03     51.2991E-03     334.472E-03    -166.576E-03    -167.896E-03    -167.523E-03     334.459E-03    -166.935E-03     4.83000E-03     335.571E-03     56.1772E+06    -77.4815E+06    -90.3338E+06    -138.499E+06    -90.4101E+06    -138.422E+06    -77.4815E+06     1.34260E+06
             578     51.3160E-03     1.69574E-03     51.2880E-03     335.290E-03    -166.024E-03    -169.266E-03    -169.248E-03     335.272E-03    -166.024E-03     2.52557E-03     335.874E-03     65.1126E+06    -90.3294E+06    -96.0108E+06    -157.981E+06    -96.0690E+06    -157.923E+06    -90.3294E+06     959.640E+03
             579     51.2981E-03     857.644E-06     51.2909E-03     330.727E-03    -163.612E-03    -167.115E-03    -166.435E-03     330.702E-03    -164.267E-03     2.57512E-03     331.132E-03     82.9880E+06    -97.9393E+06    -101.858E+06    -182.803E+06    -100.353E+06    -182.744E+06    -99.5039E+06    -499.449E+03
             580     52.6847E-03     14.3903E-03     50.6813E-03     335.113E-03    -166.700E-03    -168.413E-03    -163.943E-03     331.704E-03    -167.761E-03     82.4028E-03     362.882E-03     124.700E+06     136.441E+06     61.2960E+06    -7.39759E+06    -6.92622E+06     60.8246E+06     136.441E+06     3.97075E+06
             581     52.3482E-03     13.5467E-03     50.5650E-03     337.290E-03    -167.658E-03    -169.632E-03    -166.324E-03     333.982E-03    -167.658E-03     81.5155E-03     366.409E-03     80.6320E+06     74.1076E+06     26.2830E+06    -18.8851E+06    -18.6261E+06     26.0240E+06     74.1076E+06    -682.889E+03
             582     52.0237E-03     12.6981E-03     50.4502E-03     337.471E-03    -167.589E-03    -169.883E-03    -167.417E-03     335.005E-03    -167.589E-03     70.0359E-03     360.269E-03     61.8594E+06     47.3489E+06     6.12119E+06    -23.5323E+06    -21.1001E+06     3.68900E+06     47.3489E+06    -4.01516E+06
             583     51.7438E-03     11.8488E-03     50.3689E-03     337.211E-03    -167.518E-03    -169.694E-03    -168.036E-03     335.554E-03    -167.518E-03     57.6071E-03     355.076E-03     62.7231E+06     35.6228E+06    -5.87640E+06    -36.2383E+06    -30.0285E+06    -12.0861E+06     35.6228E+06    -3.99876E+06
             584     51.4822E-03     11.0048E-03     50.2922E-03     336.812E-03    -167.411E-03    -169.401E-03    -168.017E-03     335.427E-03    -167.411E-03     52.8601E-03     353.542E-03     60.4201E+06     26.7726E+06    -13.0847E+06    -42.6584E+06    -38.7344E+06    -17.0086E+06     26.7726E+06    -571.157E+03
             585     51.2374E-03     10.1561E-03     50.2207E-03     336.179E-03    -167.320E-03    -168.859E-03    -167.818E-03     335.138E-03    -167.320E-03     45.1596E-03     351.129E-03     56.2671E+06     25.2892E+06    -11.9609E+06    -39.3984E+06    -39.1932E+06    -12.1661E+06     25.2892E+06     1.77030E+06
             586     51.0145E-03     9.31126E-03     50.1576E-03     336.349E-03    -167.220E-03    -169.129E-03    -168.458E-03     335.678E-03    -167.220E-03     36.6766E-03     347.856E-03     59.8956E+06     26.7426E+06    -8.95939E+06    -42.3454E+06    -41.2410E+06    -10.0638E+06     26.7426E+06     3.19218E+06
             587     50.8147E-03     8.46859E-03     50.1041E-03     335.653E-03    -167.068E-03    -168.585E-03    -168.058E-03     335.125E-03    -167.068E-03     32.2659E-03     345.610E-03     62.0084E+06     20.1566E+06    -12.8174E+06    -51.3127E+06    -49.8636E+06    -14.2665E+06     20.1566E+06    -524.016E+03
             588     50.6314E-03     7.62255E-03     50.0543E-03     333.843E-03    -166.500E-03    -167.344E-03    -166.542E-03     333.524E-03    -166.982E-03     24.8931E-03     341.772E-03     59.8151E+06     11.9710E+06    -18.3504E+06    -56.9119E+06    -56.2833E+06    -18.9791E+06     11.9710E+06    -1.09020E+06
             589     50.4764E-03     6.76960E-03     50.0204E-03     334.313E-03    -166.439E-03    -167.874E-03    -167.172E-03     334.093E-03    -166.921E-03     20.9230E-03     340.676E-03     56.9205E+06     2.75205E+06    -24.8789E+06    -62.6734E+06    -62.3777E+06    -25.1746E+06     2.75205E+06     3.23565E+06
             590     50.3332E-03     5.92843E-03     49.9829E-03     334.877E-03    -166.724E-03    -168.153E-03    -167.977E-03     334.701E-03    -166.724E-03     18.6177E-03     340.141E-03     51.7221E+06    -12.6922E+06    -35.7027E+06    -71.8960E+06    -70.8638E+06    -36.7349E+06    -12.6922E+06     2.60199E+06
             591     50.2115E-03     5.08210E-03     49.9536E-03     332.995E-03    -165.865E-03    -167.130E-03    -166.310E-03     332.879E-03    -166.568E-03     15.1251E-03     336.971E-03     43.4113E+06    -29.0066E+06    -53.5826E+06    -78.4135E+06    -74.0167E+06    -57.9794E+06    -29.0066E+06     4.39322E+06
             592     50.1100E-03     4.23180E-03     49.9310E-03     332.474E-03    -165.733E-03    -166.742E-03    -165.809E-03     332.391E-03    -166.582E-03     12.7194E-03     335.180E-03     37.8708E+06    -49.9745E+06    -74.7171E+06    -93.2736E+06    -79.0224E+06    -88.9684E+06    -49.9745E+06     3.86887E+06
             593     50.0322E-03     3.38664E-03     49.9174E-03     333.320E-03    -166.360E-03    -166.960E-03    -166.682E-03     333.270E-03    -166.588E-03     9.56255E-03     335.069E-03     42.5479E+06    -67.6464E+06    -86.8952E+06    -116.102E+06    -86.9910E+06    -116.006E+06    -67.6464E+06     66.9163E+03
             594     49.9656E-03     2.54357E-03     49.9008E-03     332.982E-03    -165.788E-03    -167.194E-03    -166.373E-03     332.956E-03    -166.583E-03     6.71551E-03     334.070E-03     54.9656E+06    -79.0284E+06    -94.5091E+06    -139.882E+06    -94.5795E+06    -139.811E+06    -79.0284E+06     1.08001E+06
             595     49.9218E-03     1.69254E-03     49.8931E-03     332.796E-03    -164.758E-03    -168.037E-03    -165.940E-03     332.774E-03    -166.835E-03     5.32427E-03     333.341E-03     62.6549E+06    -89.7199E+06    -97.2507E+06    -155.556E+06    -97.1728E+06    -155.342E+06    -90.0112E+06     2.77773E+06
             596     49.9002E-03     840.549E-06     49.8931E-03     334.452E-03    -165.485E-03    -168.967E-03    -166.918E-03     334.421E-03    -167.504E-03     2.23295E-03     334.864E-03     80.9018E+06    -97.9784E+06    -102.269E+06    -180.893E+06    -102.188E+06    -180.682E+06    -98.2697E+06     1.23444E+06
             597     51.3568E-03     14.3981E-03     49.2972E-03     335.786E-03    -166.931E-03    -168.856E-03    -163.892E-03     331.787E-03    -167.895E-03     88.6343E-03     365.246E-03     128.255E+06     141.326E+06     64.3182E+06    -6.59551E+06    -5.19026E+06     62.9130E+06     141.326E+06     2.96181E+06
             598     50.9928E-03     13.5431E-03     49.1615E-03     338.631E-03    -167.818E-03    -170.813E-03    -166.720E-03     334.538E-03    -167.818E-03     90.2833E-03     370.286E-03     82.7329E+06     82.0387E+06     31.9504E+06    -13.1839E+06    -12.1292E+06     30.8957E+06     82.0387E+06     5.49232E+06
             599     50.6784E-03     12.6949E-03     49.0626E-03     339.297E-03    -167.696E-03    -171.600E-03    -168.871E-03     336.567E-03    -167.696E-03     73.9631E-03     363.457E-03     59.9900E+06     48.9482E+06     4.64776E+06    -19.1779E+06    -18.3076E+06     3.77746E+06     48.9482E+06     3.18539E+06
             600     50.3762E-03     11.8491E-03     48.9629E-03     338.601E-03    -167.517E-03    -171.085E-03    -169.441E-03     336.957E-03    -167.517E-03     57.1866E-03     356.581E-03     55.7185E+06     35.7252E+06    -2.94392E+06    -27.7430E+06    -23.8035E+06    -6.88335E+06     35.7252E+06     361.691E+03
             601     50.1216E-03     11.0025E-03     48.8991E-03     338.176E-03    -167.299E-03    -170.877E-03    -169.641E-03     336.940E-03    -167.299E-03     50.0149E-03     354.654E-03     58.3442E+06     25.2658E+06    -12.2381E+06    -41.8737E+06    -38.0113E+06    -16.1004E+06     25.2658E+06    -3.54740E+06
             602     49.8621E-03     10.1603E-03     48.8160E-03     337.174E-03    -167.112E-03    -170.062E-03    -169.075E-03     336.187E-03    -167.112E-03     44.1258E-03     352.001E-03     62.2015E+06     29.5510E+06    -12.4152E+06    -41.8995E+06    -41.0064E+06    -13.3082E+06     29.5510E+06    -1.32555E+06
             603     49.6458E-03     9.31529E-03     48.7640E-03     335.643E-03    -166.926E-03    -168.717E-03    -168.002E-03     334.928E-03    -166.926E-03     37.9243E-03     347.478E-03     60.0254E+06     23.9059E+06    -13.8895E+06    -45.2501E+06    -44.8845E+06    -14.2550E+06     23.9059E+06    -840.529E+03
             604     49.4311E-03     8.46734E-03     48.7005E-03     334.556E-03    -166.711E-03    -167.844E-03    -167.160E-03     333.949E-03    -166.789E-03     34.6684E-03     345.090E-03     56.1515E+06     11.7992E+06    -19.7402E+06    -53.0030E+06    -52.9218E+06    -19.8214E+06     11.7992E+06    -1.36038E+06
             605     49.2574E-03     7.62131E-03     48.6643E-03     334.657E-03    -166.362E-03    -168.295E-03    -167.570E-03     334.252E-03    -166.682E-03     28.2778E-03     343.467E-03     56.8957E+06     6.82948E+06    -22.6419E+06    -58.7482E+06    -58.4711E+06    -22.9190E+06     6.82948E+06    -967.009E+03
             606     49.0924E-03     6.77901E-03     48.6221E-03     334.736E-03    -166.250E-03    -168.487E-03    -167.967E-03     334.459E-03    -166.492E-03     23.2967E-03     341.717E-03     56.5982E+06     1.02104E+06    -26.7070E+06    -64.0846E+06    -63.6345E+06    -27.1571E+06     1.02104E+06    -81.1926E+03
             607     48.9446E-03     5.93074E-03     48.5840E-03     333.032E-03    -165.929E-03    -167.103E-03    -166.562E-03     332.852E-03    -166.290E-03     18.7894E-03     338.437E-03     49.3744E+06    -14.9237E+06    -39.1441E+06    -71.7091E+06    -71.2688E+06    -39.5844E+06    -14.9237E+06    -904.197E+03
             608     48.8280E-03     5.08377E-03     48.5626E-03     331.836E-03    -165.191E-03    -166.645E-03    -165.462E-03     331.717E-03    -166.255E-03     15.2074E-03     335.786E-03     42.5813E+06    -30.4601E+06    -56.7639E+06    -79.1233E+06    -77.0183E+06    -58.8689E+06    -30.4601E+06     714.862E+03
             609     48.7244E-03     4.23559E-03     48.5399E-03     331.720E-03    -164.996E-03    -166.724E-03    -165.287E-03     331.643E-03    -166.356E-03     12.1492E-03     334.336E-03     39.5744E+06    -45.5484E+06    -72.8300E+06    -90.7075E+06    -80.7545E+06    -82.7830E+06    -45.5484E+06     4.91384E+06
             610     48.6351E-03     3.38777E-03     48.5169E-03     331.963E-03    -165.066E-03    -166.897E-03    -165.384E-03     331.908E-03    -166.525E-03     10.3937E-03     333.657E-03     42.0333E+06    -66.7017E+06    -85.0233E+06    -114.008E+06    -86.8776E+06    -112.154E+06    -66.7017E+06     4.53203E+06
             611     48.5758E-03     2.53897E-03     48.5094E-03     332.630E-03    -165.280E-03    -167.350E-03    -165.798E-03     332.592E-03    -166.794E-03     8.51815E-03     333.695E-03     54.1142E+06    -83.4124E+06    -93.5509E+06    -141.642E+06    -93.9456E+06    -141.247E+06    -83.4124E+06     2.33132E+06
             612     48.5317E-03     1.69178E-03     48.5022E-03     333.517E-03    -165.099E-03    -168.419E-03    -166.329E-03     333.504E-03    -167.175E-03     2.82640E-03     334.138E-03     59.5401E+06    -91.7762E+06    -98.3418E+06    -154.120E+06    -98.2241E+06    -153.947E+06    -92.0676E+06     1.65104E+06
             613     48.5042E-03     844.404E-06     48.4968E-03     335.088E-03    -166.047E-03    -169.041E-03    -167.594E-03     335.076E-03    -167.482E-03    -3.57373E-03     335.525E-03     81.1024E+06    -92.0744E+06    -100.568E+06    -177.030E+06    -97.4655E+06    -176.831E+06    -95.3760E+06     2.59178E+06
             614     50.0156E-03     14.3837E-03     47.9027E-03     335.318E-03    -165.527E-03    -169.792E-03    -163.324E-03     331.352E-03    -168.028E-03     88.1834E-03     363.084E-03     133.349E+06     139.416E+06     59.2564E+06    -14.2430E+06    -10.8422E+06     55.8556E+06     139.416E+06    -4.50763E+06
             615     49.6516E-03     13.5349E-03     47.7712E-03     341.016E-03    -167.902E-03    -173.115E-03    -169.364E-03     337.265E-03    -167.902E-03     85.9202E-03     371.012E-03     94.7011E+06     84.0706E+06     32.6260E+06    -24.7631E+06    -18.3404E+06     26.2034E+06     84.0706E+06     5.06735E+06
             616     49.3115E-03     12.6923E-03     47.6500E-03     341.241E-03    -167.553E-03    -173.688E-03    -171.610E-03     339.163E-03    -167.553E-03     63.3801E-03     362.982E-03     63.8614E+06     48.2077E+06     8.36913E+06    -24.6071E+06    -20.2070E+06     3.96903E+06     48.2077E+06     10.4671E+06
             617     49.0239E-03     11.8506E-03     47.5700E-03     338.637E-03    -167.214E-03    -171.422E-03    -170.241E-03     337.456E-03    -167.214E-03     48.1117E-03     354.941E-03     53.0302E+06     37.7974E+06    -610.525E+03    -22.4640E+06    -20.5939E+06    -2.48066E+06     37.7974E+06     4.20698E+06
             618     48.7493E-03     11.0084E-03     47.4901E-03     336.942E-03    -166.967E-03    -169.975E-03    -168.964E-03     335.931E-03    -166.967E-03     45.1559E-03     352.753E-03     56.3474E+06     31.4383E+06    -7.69277E+06    -32.9556E+06    -30.1967E+06    -10.4517E+06     31.4383E+06     1.92194E+06
             619     48.5004E-03     10.1628E-03     47.4237E-03     335.874E-03    -166.793E-03    -169.081E-03    -168.192E-03     334.985E-03    -166.793E-03     42.1022E-03     350.019E-03     60.4230E+06     30.4316E+06    -8.29839E+06    -39.0448E+06    -35.9927E+06    -11.3505E+06     30.4316E+06    -3.28332E+06
             620     48.2689E-03     9.31595E-03     47.3614E-03     334.497E-03    -166.657E-03    -167.840E-03    -167.183E-03     333.840E-03    -166.657E-03     36.2170E-03     346.168E-03     58.3652E+06     25.6985E+06    -10.4377E+06    -41.5038E+06    -40.1956E+06    -11.7459E+06     25.6985E+06    -4.10884E+06
             621     48.0655E-03     8.46967E-03     47.3134E-03     333.629E-03    -166.496E-03    -167.133E-03    -166.554E-03     333.128E-03    -166.574E-03     31.3940E-03     343.942E-03     56.8493E+06     16.0384E+06    -16.9009E+06    -49.5063E+06    -49.4905E+06    -16.9167E+06     16.0384E+06    -355.289E+03
             622     47.8720E-03     7.62103E-03     47.2614E-03     333.874E-03    -165.929E-03    -167.945E-03    -166.997E-03     333.483E-03    -166.486E-03     27.9508E-03     342.750E-03     56.4583E+06     5.77688E+06    -22.8476E+06    -59.2202E+06    -58.8373E+06    -23.2305E+06     5.77688E+06    -2.79913E+06
             623     47.7053E-03     6.77748E-03     47.2214E-03     333.497E-03    -165.763E-03    -167.734E-03    -166.810E-03     333.167E-03    -166.357E-03     25.5690E-03     341.013E-03     53.1402E+06    -7.34825E+06    -31.1293E+06    -68.1140E+06    -67.0465E+06    -32.1968E+06    -7.34825E+06    -5.63349E+06
             624     47.5674E-03     5.93177E-03     47.1961E-03     332.548E-03    -165.801E-03    -166.748E-03    -166.023E-03     332.300E-03    -166.277E-03     22.1398E-03     338.525E-03     46.3091E+06    -19.6413E+06    -41.3950E+06    -72.6653E+06    -71.7236E+06    -42.3367E+06    -19.6413E+06    -1.78148E+06
             625     47.4392E-03     5.08184E-03     47.1662E-03     332.644E-03    -165.761E-03    -166.883E-03    -166.264E-03     332.482E-03    -166.218E-03     17.5642E-03     336.943E-03     38.4512E+06    -36.4805E+06    -62.8673E+06    -79.8594E+06    -78.7009E+06    -64.0259E+06    -36.4805E+06     209.330E+03
             626     47.3352E-03     4.23769E-03     47.1452E-03     331.744E-03    -165.208E-03    -166.536E-03    -165.407E-03     331.651E-03    -166.244E-03     13.5664E-03     334.532E-03     37.6001E+06    -49.7499E+06    -80.1527E+06    -91.5954E+06    -85.0198E+06    -86.7283E+06    -49.7499E+06     1.47741E+06
             627     47.2524E-03     3.38696E-03     47.1308E-03     330.907E-03    -164.348E-03    -166.559E-03    -164.285E-03     330.843E-03    -166.559E-03     10.9286E-03     332.703E-03     42.6277E+06    -62.6938E+06    -87.9846E+06    -110.784E+06    -89.9748E+06    -108.794E+06    -62.6938E+06     5.31075E+06
             628     47.1804E-03     2.53724E-03     47.1121E-03     332.548E-03    -165.238E-03    -167.310E-03    -165.461E-03     332.512E-03    -167.051E-03     8.34823E-03     333.594E-03     51.9324E+06    -79.9987E+06    -93.8989E+06    -136.465E+06    -94.6565E+06    -135.708E+06    -79.9987E+06     4.47308E+06
             629     47.1332E-03     1.69369E-03     47.1028E-03     334.886E-03    -166.449E-03    -168.437E-03    -167.654E-03     334.847E-03    -167.193E-03     6.53944E-03     335.377E-03     56.5763E+06    -93.0661E+06    -100.120E+06    -152.655E+06    -99.4242E+06    -152.401E+06    -94.0152E+06     1.80821E+06
             630     47.1063E-03     853.225E-06     47.0986E-03     334.513E-03    -166.336E-03    -168.177E-03    -167.291E-03     334.484E-03    -167.193E-03     3.62976E-03     334.759E-03     73.4840E+06    -97.4965E+06    -104.144E+06    -174.004E+06    -100.361E+06    -173.827E+06    -101.456E+06    -707.531E+03
             631     48.6910E-03     14.3933E-03     46.5150E-03     338.596E-03    -165.603E-03    -172.993E-03    -168.367E-03     335.829E-03    -167.461E-03     74.2992E-03     363.905E-03     127.223E+06     128.354E+06     55.3153E+06    -17.9128E+06    -13.5574E+06     50.9598E+06     128.354E+06     2.44593E+06
             632     48.3028E-03     13.5499E-03     46.3634E-03     340.171E-03    -167.052E-03    -173.119E-03    -170.614E-03     337.666E-03    -167.052E-03     70.7585E-03     369.022E-03     97.4367E+06     68.1616E+06     28.2970E+06    -42.4614E+06    -28.7716E+06     14.6072E+06     68.1616E+06    -3.49999E+06
             633     47.9647E-03     12.7087E-03     46.2504E-03     337.639E-03    -166.701E-03    -170.938E-03    -169.583E-03     336.284E-03    -166.701E-03     51.5374E-03     358.745E-03     74.2267E+06     51.4684E+06     13.8012E+06    -31.6907E+06    -21.6624E+06     3.77300E+06     51.4684E+06    -1.55685E+06
             634     47.6669E-03     11.8639E-03     46.1669E-03     334.660E-03    -166.190E-03    -168.470E-03    -167.377E-03     333.839E-03    -166.462E-03     40.5449E-03     351.615E-03     60.2461E+06     43.2865E+06    -3.03215E+06    -24.5007E+06    -21.8662E+06    -5.66664E+06     43.2865E+06     3.63173E+06
             635     47.3968E-03     11.0144E-03     46.0992E-03     332.788E-03    -165.507E-03    -167.281E-03    -165.524E-03     331.916E-03    -166.392E-03     41.5964E-03     349.899E-03     61.5492E+06     43.6890E+06    -545.116E+03    -26.4812E+06    -22.1366E+06    -4.88971E+06     43.6890E+06     2.59375E+06
             636     47.1331E-03     10.1663E-03     46.0237E-03     332.926E-03    -165.752E-03    -167.175E-03    -165.715E-03     332.080E-03    -166.365E-03     40.9618E-03     348.130E-03     58.7916E+06     34.4037E+06    -1.70645E+06    -33.2867E+06    -28.6062E+06    -6.38699E+06     34.4037E+06     429.622E+03
             637     46.9048E-03     9.32042E-03     45.9695E-03     333.678E-03    -166.323E-03    -167.355E-03    -166.735E-03     333.058E-03    -166.323E-03     35.1105E-03     345.917E-03     60.8056E+06     27.4879E+06    -8.24175E+06    -42.6413E+06    -40.0468E+06    -10.8362E+06     27.4879E+06    -302.332E+03
             638     46.6891E-03     8.47368E-03     45.9138E-03     332.786E-03    -165.786E-03    -167.000E-03    -166.031E-03     332.288E-03    -166.258E-03     31.3539E-03     343.263E-03     59.7965E+06     19.2068E+06    -14.7492E+06    -49.6972E+06    -49.6225E+06    -14.8239E+06     19.2068E+06    -23.3806E+03
             639     46.5012E-03     7.62904E-03     45.8712E-03     331.004E-03    -164.537E-03    -166.466E-03    -164.268E-03     330.554E-03    -166.286E-03     29.6037E-03     339.944E-03     51.4843E+06     2.25932E+06    -21.3088E+06    -56.6829E+06    -56.4792E+06    -21.5125E+06     2.25932E+06    -739.937E+03
             640     46.3268E-03     6.77479E-03     45.8288E-03     331.170E-03    -164.723E-03    -166.447E-03    -164.373E-03     330.820E-03    -166.447E-03     26.0917E-03     338.426E-03     46.0752E+06    -15.4179E+06    -32.1082E+06    -67.4679E+06    -66.6162E+06    -32.9598E+06    -15.4179E+06    -3.13169E+06
             641     46.1819E-03     5.92556E-03     45.8002E-03     333.022E-03    -166.094E-03    -166.928E-03    -166.206E-03     332.761E-03    -166.555E-03     22.7904E-03     338.668E-03     43.3386E+06    -27.0795E+06    -46.2264E+06    -76.3831E+06    -74.3572E+06    -48.2522E+06    -27.0795E+06    -2.79019E+06
             642     46.0504E-03     5.08369E-03     45.7690E-03     333.139E-03    -166.226E-03    -166.913E-03    -166.418E-03     332.959E-03    -166.540E-03     18.6263E-03     337.496E-03     37.5125E+06    -39.5128E+06    -66.3750E+06    -81.5347E+06    -79.3189E+06    -68.5908E+06    -39.5128E+06    -1.43051E+06
             643     45.9505E-03     4.23304E-03     45.7551E-03     332.729E-03    -165.955E-03    -166.775E-03    -166.085E-03     332.623E-03    -166.538E-03     14.4981E-03     335.905E-03     35.1285E+06    -54.4159E+06    -83.5881E+06    -93.1612E+06    -86.0638E+06    -90.6855E+06    -54.4159E+06    -931.604E+03
             644     45.8600E-03     3.38789E-03     45.7347E-03     332.720E-03    -165.866E-03    -166.855E-03    -166.032E-03     332.650E-03    -166.618E-03     11.5580E-03     334.736E-03     41.3396E+06    -65.2171E+06    -91.5834E+06    -112.318E+06    -91.9454E+06    -111.956E+06    -65.2171E+06     419.972E+03
             645     45.7933E-03     2.54128E-03     45.7227E-03     332.004E-03    -165.016E-03    -166.988E-03    -164.971E-03     331.958E-03    -166.988E-03     9.41267E-03     333.115E-03     49.9179E+06    -75.6623E+06    -96.2993E+06    -132.194E+06    -96.7093E+06    -131.784E+06    -75.6623E+06     2.90949E+06
             646     45.7346E-03     1.68884E-03     45.7034E-03     333.110E-03    -165.035E-03    -168.075E-03    -164.990E-03     333.065E-03    -168.075E-03     7.93134E-03     333.610E-03     53.6724E+06    -87.5876E+06    -100.135E+06    -146.191E+06    -99.4634E+06    -145.914E+06    -88.5367E+06     2.90309E+06
             647     45.7104E-03     836.391E-06     45.7027E-03     337.981E-03    -167.719E-03    -170.263E-03    -168.112E-03     337.954E-03    -169.842E-03     4.66930E-03     338.238E-03     69.0630E+06    -101.200E+06    -106.153E+06    -172.386E+06    -105.461E+06    -171.952E+06    -102.327E+06     1.61267E+06
             648     47.3614E-03     14.4194E-03     45.1130E-03     347.698E-03    -166.557E-03    -181.140E-03    -178.659E-03     345.217E-03    -166.557E-03     71.1448E-03     374.466E-03     122.803E+06     136.053E+06      62.799E+06    -5.00920E+06    -2.64795E+06     60.4378E+06     136.053E+06     8.86052E+06
             649     46.9751E-03     13.5758E-03     44.9707E-03     337.393E-03    -165.831E-03    -171.562E-03    -168.825E-03     334.656E-03    -165.831E-03     73.7792E-03     368.683E-03     81.8340E+06     78.6655E+06     39.1815E+06    -13.2280E+06    -4.95483E+06     30.9083E+06     78.6655E+06    -4.03537E+06
             650     46.6253E-03     12.7243E-03     44.8554E-03     332.294E-03    -165.425E-03    -166.869E-03    -164.973E-03     330.577E-03    -165.604E-03     57.3005E-03     355.291E-03     64.2289E+06     41.3458E+06      32.945E+03    -28.9384E+06    -20.6424E+06    -8.26305E+06     41.3458E+06    -11.3720E+06
             651     46.3244E-03     11.8735E-03     44.7769E-03     330.334E-03    -164.476E-03    -165.858E-03    -163.698E-03     329.336E-03    -165.638E-03     44.0395E-03     348.892E-03     62.9886E+06     40.1073E+06    -8.37848E+06    -30.7057E+06    -25.1147E+06    -13.9695E+06     40.1073E+06    -2.20834E+06
             652     46.0474E-03     11.0248E-03     44.7081E-03     329.710E-03    -163.943E-03    -165.768E-03    -162.964E-03     328.732E-03    -165.768E-03     43.6228E-03     347.679E-03     65.1884E+06     48.9074E+06     4.88030E+06    -25.9250E+06    -19.7612E+06    -1.28349E+06     48.9074E+06     1.21310E+06
             653     45.7822E-03     10.1720E-03     44.6378E-03     330.547E-03    -164.552E-03    -165.995E-03    -163.710E-03     329.603E-03    -165.893E-03     42.8790E-03     346.310E-03     65.7952E+06     38.5485E+06    -3.53714E+06    -37.2022E+06    -33.0413E+06    -7.69809E+06     38.5485E+06     5.71162E+06
             654     45.5331E-03     9.32248E-03     44.5685E-03     330.671E-03    -164.288E-03    -166.384E-03    -164.029E-03     330.012E-03    -165.983E-03     36.0301E-03     342.625E-03     60.8355E+06     23.4987E+06    -11.6202E+06    -46.5348E+06    -44.3143E+06    -13.8408E+06     23.4987E+06     6.08684E+06
             655     45.3249E-03     8.47576E-03     44.5254E-03     330.174E-03    -163.748E-03    -166.426E-03    -163.458E-03     329.586E-03    -166.128E-03     34.0536E-03     340.383E-03     52.8438E+06     12.8405E+06    -13.3724E+06    -47.8863E+06    -47.2335E+06    -14.0253E+06     12.8405E+06     2.34898E+06
             656     45.1265E-03     7.62146E-03     44.4782E-03     330.581E-03    -164.229E-03    -166.353E-03    -163.705E-03     330.058E-03    -166.353E-03     32.0207E-03     339.588E-03     49.6789E+06     851.766E+03    -21.0352E+06    -55.9522E+06    -55.7700E+06    -21.2174E+06     851.766E+03       1.993E+06
             657     44.9558E-03     6.77528E-03     44.4423E-03     331.497E-03    -164.926E-03    -166.571E-03    -164.547E-03     331.118E-03    -166.571E-03     27.2512E-03     338.604E-03     46.1823E+06    -12.1268E+06    -30.2258E+06    -64.5473E+06    -64.3654E+06    -30.4076E+06    -12.1268E+06     1.27577E+06
             658     44.7939E-03     5.92840E-03     44.3998E-03     331.951E-03    -165.181E-03    -166.771E-03    -164.924E-03     331.694E-03    -166.771E-03     22.3935E-03     337.408E-03     40.9445E+06    -27.2665E+06    -45.6887E+06    -73.9770E+06    -72.6477E+06    -47.0179E+06    -27.2665E+06    -897.253E+03
             659     44.6679E-03     5.07662E-03     44.3785E-03     332.843E-03    -165.862E-03    -166.981E-03    -165.720E-03     332.674E-03    -166.953E-03     18.3324E-03     337.140E-03     37.5619E+06    -43.2626E+06    -68.5754E+06    -85.7505E+06    -82.4729E+06    -71.8529E+06    -43.2626E+06    -2.75809E+06
             660     44.5574E-03     4.23263E-03     44.3559E-03     334.083E-03    -166.804E-03    -167.279E-03    -166.960E-03     333.968E-03    -167.009E-03     15.0470E-03     337.254E-03     35.9739E+06    -57.6977E+06    -85.5883E+06    -98.1031E+06    -89.1377E+06    -94.5537E+06    -57.6977E+06    -2.46762E+06
             661     44.4694E-03     3.38604E-03     44.3403E-03     334.246E-03    -166.917E-03    -167.329E-03    -167.253E-03     334.170E-03    -166.917E-03     12.3088E-03     336.295E-03     38.6750E+06    -72.0083E+06    -91.9377E+06    -115.546E+06    -92.1101E+06    -115.373E+06    -72.0083E+06    -1.37926E+06
             662     44.3994E-03     2.53918E-03     44.3267E-03     333.785E-03    -165.877E-03    -167.907E-03    -166.901E-03     333.739E-03    -166.838E-03     9.03036E-03     335.030E-03     46.8373E+06    -81.7541E+06    -95.6884E+06    -133.717E+06    -95.9049E+06    -133.500E+06    -81.7541E+06    -1.45010E+06
             663     44.3493E-03     1.69271E-03     44.3169E-03     333.373E-03    -164.686E-03    -168.688E-03    -166.375E-03     333.357E-03    -166.982E-03     4.37773E-03     333.987E-03     51.4118E+06    -87.8129E+06    -100.933E+06    -144.425E+06    -101.163E+06    -144.195E+06    -87.8129E+06     14.3857E+03
             664     44.3037E-03     847.427E-06     44.2956E-03     334.456E-03    -165.853E-03    -168.602E-03    -167.074E-03     334.450E-03    -167.376E-03     2.18186E-03     334.780E-03     67.8558E+06    -96.3459E+06    -102.666E+06    -166.801E+06    -102.914E+06    -166.372E+06    -96.5260E+06     1.78546E+06
             665     46.0218E-03     14.4243E-03     43.7029E-03     351.639E-03    -166.755E-03    -184.885E-03    -180.644E-03     347.398E-03    -166.755E-03     90.7154E-03     379.776E-03     131.376E+06     137.911E+06     64.7426E+06    -12.9928E+06    -10.9399E+06     62.6896E+06     137.911E+06    -7.54608E+06
             666     45.6479E-03     13.5807E-03     43.5809E-03     344.908E-03    -165.932E-03    -178.977E-03    -173.895E-03     339.827E-03    -165.932E-03     100.718E-03     377.057E-03     89.6947E+06     86.8692E+06     36.4790E+06    -15.3832E+06    -10.3830E+06     31.4787E+06     86.8692E+06     1.85389E+06
             667     45.2975E-03     12.7297E-03     43.4720E-03     336.061E-03    -165.307E-03    -170.754E-03    -167.570E-03     333.056E-03    -165.486E-03     76.1249E-03     359.863E-03     60.5369E+06     44.0551E+06     1.40016E+06    -24.0007E+06    -17.0643E+06    -5.53631E+06     44.0551E+06     6.77913E+06
             668     44.9823E-03     11.8795E-03     43.3853E-03     330.732E-03    -164.375E-03    -166.358E-03    -163.677E-03     329.093E-03    -165.417E-03     55.9372E-03     348.860E-03     54.6259E+06     32.5934E+06    -6.25417E+06    -29.6105E+06    -24.3303E+06    -11.5344E+06     32.5934E+06    -5.07449E+06
             669     44.7074E-03     11.0254E-03     43.3266E-03     330.355E-03    -164.446E-03    -165.909E-03    -163.310E-03     328.847E-03    -165.537E-03     53.9046E-03     347.487E-03     61.2169E+06     30.5749E+06    -9.09697E+06    -39.9091E+06    -36.0921E+06    -12.9140E+06     30.5749E+06    -1.31043E+06
             670     44.4236E-03     10.1778E-03     43.2419E-03     330.424E-03    -164.352E-03    -166.072E-03    -163.356E-03     329.056E-03    -165.700E-03     50.9636E-03     345.635E-03     63.8552E+06     30.1750E+06    -10.1953E+06    -43.3486E+06    -41.4731E+06    -12.0707E+06     30.1750E+06     5.60924E+06
             671     44.1831E-03     9.32737E-03     43.1873E-03     328.572E-03    -162.637E-03    -165.935E-03    -161.790E-03     327.726E-03    -165.935E-03     40.4511E-03     339.860E-03     59.2016E+06     24.5027E+06    -9.49921E+06    -43.6300E+06    -42.6389E+06    -10.4903E+06     24.5027E+06     5.16680E+06
             672     43.9579E-03     8.46983E-03     43.1342E-03     329.381E-03    -163.126E-03    -166.255E-03    -162.457E-03     328.712E-03    -166.255E-03     36.1099E-03     339.262E-03     55.3957E+06     14.6524E+06    -12.2446E+06    -48.8951E+06    -47.4211E+06    -13.7186E+06     14.6524E+06     6.35249E+06
             673     43.7588E-03     7.62401E-03     43.0895E-03     331.614E-03    -165.109E-03    -166.505E-03    -164.602E-03     331.107E-03    -166.505E-03     31.6141E-03     340.014E-03     53.4962E+06     4.90219E+06    -19.2384E+06    -56.4027E+06    -55.4234E+06    -20.2177E+06     4.90219E+06     5.08100E+06
             674     43.5729E-03     6.77496E-03     43.0430E-03     331.915E-03    -165.245E-03    -166.670E-03    -164.873E-03     331.543E-03    -166.670E-03     27.0586E-03     338.700E-03     49.5801E+06    -5.95424E+06    -27.3612E+06    -62.6033E+06    -62.2184E+06    -27.7461E+06    -5.95424E+06     2.78952E+06
             675     43.4191E-03     5.92523E-03     43.0129E-03     331.717E-03    -164.841E-03    -166.876E-03    -164.589E-03     331.465E-03    -166.876E-03     22.1211E-03     337.115E-03     42.5096E+06    -22.5513E+06    -44.5516E+06    -70.6474E+06    -70.3022E+06    -44.8969E+06    -22.5513E+06     1.85262E+06
             676     43.2812E-03     5.07809E-03     42.9822E-03     332.692E-03    -165.554E-03    -167.138E-03    -165.428E-03     332.539E-03    -167.111E-03     17.3691E-03     336.849E-03     35.8227E+06    -40.8787E+06    -65.6463E+06    -81.4540E+06    -77.6202E+06    -69.4801E+06    -40.8787E+06     878.132E+03
             677     43.1655E-03     4.22970E-03     42.9578E-03     333.885E-03    -166.583E-03    -167.301E-03    -166.524E-03     333.791E-03    -167.267E-03     13.5091E-03     336.844E-03     36.0392E+06    -58.5012E+06    -82.2807E+06    -99.5879E+06    -86.0230E+06    -95.8456E+06    -58.5012E+06    -2.11689E+06
             678     43.0777E-03     3.38386E-03     42.9446E-03     334.921E-03    -167.076E-03    -167.845E-03    -167.596E-03     334.856E-03    -167.260E-03     11.4056E-03     336.868E-03     40.8171E+06    -71.0929E+06    -91.0378E+06    -117.183E+06    -91.6154E+06    -116.606E+06    -71.0929E+06    -2.79531E+06
             679     43.0024E-03     2.53906E-03     42.9273E-03     335.789E-03    -166.828E-03    -168.961E-03    -168.913E-03     335.741E-03    -166.828E-03     9.32162E-03     336.971E-03     47.3607E+06    -84.2716E+06    -95.2498E+06    -135.497E+06    -94.7668E+06    -135.277E+06    -84.9746E+06    -2.06609E+06
             680     42.9508E-03     1.69786E-03     42.9173E-03     334.601E-03    -165.699E-03    -168.902E-03    -168.869E-03     334.568E-03    -165.699E-03     7.51202E-03     335.141E-03     53.0396E+06    -90.8058E+06    -100.034E+06    -147.741E+06    -96.4047E+06    -147.197E+06    -94.9790E+06    -2.94264E+06
             681     42.9167E-03     851.802E-06     42.9083E-03     330.223E-03    -164.121E-03    -166.102E-03    -165.885E-03     330.192E-03    -164.308E-03     7.38831E-03     330.461E-03     70.6248E+06    -92.6967E+06    -100.038E+06    -166.423E+06    -97.0519E+06    -165.936E+06    -96.1693E+06    -3.49216E+06
             682     44.6599E-03     14.3735E-03     42.2837E-03     343.291E-03    -165.532E-03    -177.760E-03    -171.870E-03     339.444E-03    -167.574E-03     84.5778E-03     370.247E-03     134.645E+06     125.300E+06     59.7577E+06    -29.5171E+06    -27.2225E+06     57.4632E+06     125.300E+06    -5.20353E+06
             683     44.2839E-03     13.5417E-03     42.1626E-03     348.522E-03    -166.955E-03    -181.567E-03    -177.150E-03     344.105E-03    -166.955E-03     91.9356E-03     379.449E-03     101.651E+06     69.8814E+06     21.8781E+06    -46.8383E+06    -36.1583E+06     11.1982E+06     69.8814E+06    -2.93227E+06
             684     43.9488E-03     12.7127E-03     42.0700E-03     340.560E-03    -166.410E-03    -174.149E-03    -171.202E-03     337.612E-03    -166.410E-03     76.1897E-03     364.394E-03     75.6423E+06     57.5414E+06     13.2270E+06    -29.0786E+06    -18.6359E+06     2.78431E+06     57.5414E+06     281.355E+03
             685     43.6431E-03     11.8668E-03     41.9989E-03     334.470E-03    -165.995E-03    -168.475E-03    -166.216E-03     332.363E-03    -166.147E-03     64.6481E-03     352.790E-03     59.6823E+06     38.7063E+06     2.49514E+06    -29.3294E+06    -22.4898E+06    -4.34445E+06     38.7063E+06     5.50680E+06
             686     43.3581E-03     11.0205E-03     41.9341E-03     333.472E-03    -165.940E-03    -167.532E-03    -165.283E-03     331.375E-03    -166.092E-03     64.4597E-03     351.446E-03     55.5667E+06     14.1435E+06    -16.8030E+06    -49.5362E+06    -43.4845E+06    -22.8546E+06     14.1435E+06     3.18925E+06
             687     43.0700E-03     10.1697E-03     41.8522E-03     332.188E-03    -165.312E-03    -166.876E-03    -164.157E-03     330.369E-03    -166.212E-03     59.4806E-03     348.584E-03     51.8897E+06     16.3947E+06    -15.5767E+06    -43.4009E+06    -42.8963E+06    -16.0813E+06     16.3947E+06    -744.496E+03
             688     42.8265E-03     9.31816E-03     41.8005E-03     331.882E-03    -164.533E-03    -167.349E-03    -164.320E-03     330.735E-03    -166.415E-03     47.5363E-03     343.802E-03     57.5527E+06     21.1088E+06    -12.2273E+06    -45.3096E+06    -45.0996E+06    -12.4374E+06     21.1088E+06     2.18604E+06
             689     42.5969E-03     8.47281E-03     41.7458E-03     332.890E-03    -165.341E-03    -167.549E-03    -165.508E-03     332.069E-03    -166.561E-03     40.2080E-03     342.841E-03     62.9858E+06     20.1271E+06    -13.7429E+06    -52.4097E+06    -51.4891E+06    -14.6635E+06     20.1271E+06     4.17622E+06
             690     42.3833E-03     7.62200E-03     41.6923E-03     332.538E-03    -165.843E-03    -166.695E-03    -165.340E-03     331.980E-03    -166.640E-03     33.1566E-03     340.760E-03     59.2917E+06     13.1204E+06    -15.6639E+06    -54.9842E+06    -53.9481E+06    -16.7000E+06     13.1204E+06     4.83249E+06
             691     42.2012E-03     6.77444E-03     41.6539E-03     332.172E-03    -165.435E-03    -166.737E-03    -165.068E-03     331.806E-03    -166.737E-03     26.7805E-03     338.879E-03     51.3624E+06    -2.42451E+06    -24.7921E+06    -61.1375E+06    -60.4331E+06    -25.4965E+06    -2.42451E+06     4.92026E+06
             692     42.0372E-03     5.92651E-03     41.6174E-03     332.323E-03    -165.439E-03    -166.884E-03    -165.194E-03     332.077E-03    -166.884E-03     22.0529E-03     337.740E-03     42.0523E+06    -20.5919E+06    -43.5730E+06    -68.2094E+06    -67.7366E+06    -44.0458E+06    -20.5919E+06     3.14367E+06
             693     41.8961E-03     5.07931E-03     41.5870E-03     332.805E-03    -165.733E-03    -167.072E-03    -165.557E-03     332.629E-03    -167.072E-03     18.5174E-03     336.993E-03     36.2734E+06    -36.0546E+06    -64.0377E+06    -76.6855E+06    -73.5770E+06    -67.1462E+06    -36.0546E+06     971.713E+03
             694     41.7800E-03     4.23167E-03     41.5651E-03     333.803E-03    -166.393E-03    -167.410E-03    -166.489E-03     333.705E-03    -167.216E-03     13.6295E-03     336.763E-03     38.1305E+06    -51.7310E+06    -76.5642E+06    -94.9570E+06    -80.0383E+06    -91.4828E+06    -51.7310E+06     -55.675E+03
             695     41.6817E-03     3.38411E-03     41.5441E-03     334.604E-03    -166.786E-03    -167.818E-03    -167.337E-03     334.552E-03    -167.215E-03     10.1602E-03     336.461E-03     44.1351E+06    -70.1663E+06    -87.7594E+06    -119.584E+06    -88.9665E+06    -118.377E+06    -70.1663E+06    -2.72798E+06
             696     41.6070E-03     2.53938E-03     41.5294E-03     334.330E-03    -166.092E-03    -168.238E-03    -167.106E-03     334.281E-03    -167.175E-03     9.86349E-03     335.364E-03     50.5697E+06    -81.8726E+06    -94.0230E+06    -136.616E+06    -93.6495E+06    -136.286E+06    -82.5756E+06    -2.60685E+06
             697     41.5525E-03     1.69122E-03     41.5181E-03     334.397E-03    -165.682E-03    -168.714E-03    -167.130E-03     334.346E-03    -167.217E-03     10.0362E-03     334.800E-03     55.4826E+06    -88.7530E+06    -98.7661E+06    -148.318E+06    -95.1222E+06    -147.789E+06    -92.9261E+06    -1.26011E+06
             698     41.5263E-03     846.439E-06     41.5176E-03     334.908E-03    -166.566E-03    -168.342E-03    -167.510E-03     334.864E-03    -167.354E-03     9.34940E-03     335.101E-03     74.5346E+06    -95.0136E+06    -104.637E+06    -173.763E+06    -98.2598E+06    -173.203E+06    -101.951E+06     87.0218E+03
             699     43.3440E-03     14.4039E-03     40.8807E-03     337.466E-03    -165.166E-03    -172.300E-03    -167.012E-03     334.626E-03    -167.614E-03     74.3604E-03     363.559E-03     128.800E+06     138.239E+06     64.4066E+06    -9.78506E+06    -9.08192E+06     63.7034E+06     138.239E+06     6.48402E+06
             700     42.9495E-03     13.5550E-03     40.7544E-03     337.655E-03    -165.786E-03    -171.868E-03    -167.412E-03     334.764E-03    -167.352E-03     74.9930E-03     366.833E-03     82.7804E+06     73.2961E+06     29.1204E+06    -21.2258E+06    -14.6671E+06     22.5616E+06     73.2961E+06    -3.20106E+06
             701     42.6050E-03     12.7002E-03     40.6681E-03     336.090E-03    -166.071E-03    -170.018E-03    -166.658E-03     333.890E-03    -167.232E-03     66.0950E-03     358.415E-03     62.7131E+06     38.6568E+06    -4.46379E+06    -31.7848E+06    -24.0256E+06    -12.2230E+06     38.6568E+06    -9.16944E+06
             702     42.3009E-03     11.8520E-03     40.6066E-03     336.016E-03    -167.226E-03    -168.789E-03    -166.857E-03     334.083E-03    -167.226E-03     62.2749E-03     353.209E-03     64.4629E+06     34.1373E+06    -10.1631E+06    -38.1760E+06    -31.3175E+06    -17.0216E+06     34.1373E+06     4.91357E+06
             703     41.9995E-03     11.0041E-03     40.5324E-03     335.913E-03    -167.216E-03    -168.698E-03    -166.627E-03     333.842E-03    -167.216E-03     64.3875E-03     352.371E-03     60.0575E+06     29.0785E+06    -8.19770E+06    -39.0910E+06    -31.9915E+06    -15.2972E+06     29.0785E+06     9.05530E+06
             704     41.7223E-03     10.1572E-03     40.4671E-03     336.019E-03    -166.968E-03    -169.051E-03    -166.991E-03     334.237E-03    -167.246E-03     59.4356E-03     351.331E-03     57.1094E+06     28.7299E+06    -9.67764E+06    -36.8150E+06    -34.8631E+06    -11.6295E+06     28.7299E+06     2.36112E+06
             705     41.4593E-03     9.30994E-03     40.4005E-03     336.801E-03    -166.912E-03    -169.889E-03    -168.435E-03     335.626E-03    -167.191E-03     48.4656E-03     348.848E-03     58.6763E+06     24.3065E+06    -12.1420E+06    -43.1906E+06    -42.7265E+06    -12.6060E+06     24.3065E+06    -298.252E+03
             706     41.2251E-03     8.46577E-03     40.3465E-03     336.171E-03    -167.039E-03    -169.133E-03    -168.282E-03     335.321E-03    -167.039E-03     41.3036E-03     346.815E-03     59.0891E+06     14.9459E+06    -17.3288E+06    -53.2238E+06    -52.6447E+06    -17.9079E+06     14.9459E+06    -2.74220E+06
             707     41.0160E-03     7.62195E-03     40.3016E-03     334.404E-03    -166.707E-03    -167.697E-03    -166.804E-03     333.766E-03    -166.963E-03     35.5531E-03     343.432E-03     60.0387E+06     10.7225E+06    -20.4042E+06    -58.4420E+06    -57.9645E+06    -20.8817E+06     10.7225E+06    -844.174E+03
             708     40.8230E-03     6.77366E-03     40.2571E-03     333.593E-03    -166.472E-03    -167.121E-03    -166.182E-03     333.154E-03    -166.972E-03     29.3575E-03     340.795E-03     55.5055E+06     3.48279E+06    -23.5118E+06    -60.3103E+06    -59.7710E+06    -24.0511E+06     3.48279E+06     1.81973E+06
             709     40.6586E-03     5.92698E-03     40.2243E-03     333.072E-03    -166.043E-03    -167.029E-03    -165.751E-03     332.780E-03    -167.029E-03     23.9820E-03     338.767E-03     46.1889E+06    -14.5951E+06    -38.5428E+06    -67.7300E+06    -66.9192E+06    -39.3536E+06    -14.5951E+06     3.43032E+06
             710     40.5134E-03     5.07734E-03     40.1940E-03     333.167E-03    -166.012E-03    -167.156E-03    -165.795E-03     332.951E-03    -167.156E-03     20.7491E-03     337.590E-03     38.4100E+06    -35.8802E+06    -63.5701E+06    -79.0427E+06    -76.3859E+06    -66.2270E+06    -35.8802E+06     1.83302E+06
             711     40.3882E-03     4.23128E-03     40.1660E-03     334.228E-03    -166.774E-03    -167.454E-03    -166.817E-03     334.077E-03    -167.260E-03     17.0036E-03     337.322E-03     37.9250E+06    -51.7762E+06    -79.6217E+06    -94.3654E+06    -81.8120E+06    -92.1751E+06    -51.7762E+06     93.4193E+03
             712     40.2908E-03     3.38746E-03     40.1481E-03     334.325E-03    -166.844E-03    -167.482E-03    -166.956E-03     334.244E-03    -167.288E-03     12.3652E-03     336.224E-03     43.7955E+06    -69.1767E+06    -86.7925E+06    -118.073E+06    -88.0549E+06    -116.811E+06    -69.1767E+06     731.774E+03
             713     40.2156E-03     2.53776E-03     40.1355E-03     333.830E-03    -166.291E-03    -167.539E-03    -166.296E-03     333.785E-03    -167.489E-03     8.92341E-03     334.942E-03     50.7118E+06    -83.3543E+06    -94.6328E+06    -138.390E+06    -95.4438E+06    -137.579E+06    -83.3543E+06    -1.04604E+06
             714     40.1600E-03     1.68877E-03     40.1245E-03     334.600E-03    -166.468E-03    -168.132E-03    -166.491E-03     334.573E-03    -168.082E-03     5.15511E-03     335.083E-03      55.871E+06    -92.8194E+06    -101.971E+06    -152.524E+06    -102.191E+06    -152.304E+06    -92.8194E+06    -38.9666E+03
             715     40.1214E-03     839.751E-06     40.1126E-03     337.204E-03    -168.032E-03    -169.173E-03    -168.284E-03     337.184E-03    -168.900E-03     3.53103E-03     337.484E-03     73.1516E+06    -95.9757E+06    -105.318E+06    -173.342E+06    -102.091E+06    -173.102E+06    -99.4428E+06     3.04906E+06
             716     42.0338E-03     14.4026E-03     39.4893E-03     333.950E-03    -164.049E-03    -169.901E-03    -162.060E-03     329.701E-03    -167.642E-03     90.5197E-03     361.957E-03     126.341E+06     143.713E+06     62.7241E+06    -1.51486E+06    -1.00388E+06     62.2131E+06     143.713E+06     54.6937E+03
             717     41.6357E-03     13.5439E-03     39.3713E-03     332.625E-03    -164.826E-03    -167.799E-03    -160.375E-03     328.173E-03    -167.799E-03     92.7886E-03     364.313E-03     80.2291E+06     79.8879E+06     33.1204E+06    -11.9466E+06    -8.74159E+06     29.9154E+06     79.8879E+06     5.93760E+06
             718     41.2771E-03     12.6903E-03     39.2780E-03     334.893E-03    -166.503E-03    -168.391E-03    -164.172E-03     332.159E-03    -167.987E-03     73.1449E-03     358.269E-03     52.3858E+06     26.7161E+06    -8.79686E+06    -32.2067E+06    -25.2559E+06    -15.7477E+06     26.7161E+06     6.80791E+06
             719     40.9536E-03     11.8425E-03     39.2039E-03     337.673E-03    -168.110E-03    -169.563E-03    -167.723E-03     335.833E-03    -168.110E-03     60.7659E-03     355.189E-03     53.6357E+06     21.5886E+06    -21.8243E+06    -37.9698E+06    -32.7781E+06    -27.0160E+06     21.5886E+06     592.554E+03
             720     40.6567E-03     10.9947E-03     39.1418E-03     339.090E-03    -168.127E-03    -170.963E-03    -169.298E-03     337.425E-03    -168.127E-03     58.0901E-03     355.397E-03     65.0823E+06     41.0439E+06    -9.05240E+06    -32.1689E+06    -28.0526E+06    -13.1686E+06     41.0439E+06    -303.005E+03
             721     40.3582E-03     10.1474E-03     39.0617E-03     339.653E-03    -167.976E-03    -171.676E-03    -170.290E-03     338.266E-03    -167.976E-03     52.5418E-03     354.116E-03     68.3571E+06     43.1529E+06    -6.21889E+06    -34.8325E+06    -31.9865E+06    -9.06487E+06     43.1529E+06     1.04681E+06
             722     40.0948E-03     9.30757E-03     38.9995E-03     338.012E-03    -167.755E-03    -170.257E-03    -169.325E-03     337.080E-03    -167.755E-03     43.2032E-03     349.597E-03     63.8225E+06     34.7725E+06    -8.88497E+06    -38.2477E+06    -37.5732E+06    -9.55940E+06     34.7725E+06     685.917E+03
             723     39.8566E-03     8.46149E-03     38.9481E-03     336.122E-03    -167.399E-03    -168.723E-03    -167.758E-03     335.362E-03    -167.604E-03     39.1099E-03     346.645E-03     58.3773E+06     21.2516E+06    -12.1774E+06    -46.0256E+06    -44.8279E+06    -13.3751E+06     21.2516E+06     176.939E+03
             724     39.6400E-03     7.61473E-03     38.9018E-03     335.686E-03    -167.337E-03    -168.349E-03    -167.473E-03     335.015E-03    -167.542E-03     36.7263E-03     344.697E-03     55.1273E+06     6.46461E+06    -21.6893E+06    -57.0146E+06    -55.8948E+06    -22.8091E+06     6.46461E+06    -2.08283E+06
             725     39.4480E-03     6.77009E-03     38.8628E-03     335.332E-03    -167.415E-03    -167.917E-03    -167.281E-03     334.804E-03    -167.522E-03     32.4580E-03     342.744E-03     53.3516E+06    -3.63626E+06    -30.3774E+06    -65.0446E+06    -64.5403E+06    -30.8817E+06    -3.63626E+06    -3.02315E+06
             726     39.2758E-03     5.92272E-03     38.8267E-03     335.280E-03    -167.152E-03    -168.128E-03    -167.445E-03     334.930E-03    -167.484E-03     26.3301E-03     341.110E-03     48.5515E+06    -16.2927E+06    -41.8145E+06    -72.2653E+06    -71.7628E+06    -42.3171E+06    -16.2927E+06     1.71181E+06
             727     39.1311E-03     5.07807E-03     38.8002E-03     334.886E-03    -166.928E-03    -167.958E-03    -167.225E-03     334.657E-03    -167.431E-03     21.3113E-03     339.284E-03     39.5765E+06    -33.0492E+06    -59.6282E+06    -77.9300E+06    -76.1601E+06    -61.3982E+06    -33.0492E+06     4.08249E+06
             728     38.9988E-03     4.22959E-03     38.7687E-03     333.938E-03    -166.431E-03    -167.507E-03    -166.282E-03     333.789E-03    -167.507E-03     17.0066E-03     336.956E-03     36.9539E+06    -52.8589E+06    -80.7358E+06    -94.5180E+06    -84.3795E+06    -90.8743E+06    -52.8589E+06     1.57910E+06
             729     38.8984E-03     3.38060E-03     38.7512E-03     334.619E-03    -166.781E-03    -167.838E-03    -166.838E-03     334.534E-03    -167.695E-03     12.7191E-03     336.511E-03     43.6530E+06    -67.1880E+06    -90.9150E+06    -117.076E+06    -91.6488E+06    -116.343E+06    -67.1880E+06     884.262E+03
             730     38.8211E-03     2.53754E-03     38.7381E-03     335.919E-03    -167.546E-03    -168.372E-03    -168.209E-03     335.871E-03    -167.662E-03     9.29648E-03     337.062E-03     50.9143E+06    -81.1742E+06    -95.0608E+06    -137.171E+06    -95.7440E+06    -136.488E+06    -81.1742E+06     1.72135E+06
             731     38.7630E-03     1.69501E-03     38.7259E-03     335.923E-03    -167.097E-03    -168.827E-03    -168.712E-03     335.888E-03    -167.177E-03     6.02171E-03     336.463E-03     56.9980E+06    -94.8778E+06    -100.790E+06    -154.525E+06    -100.980E+06    -154.335E+06    -94.8778E+06    -554.986E+03
             732     38.7263E-03     851.642E-06     38.7169E-03     333.915E-03    -165.829E-03    -168.087E-03    -167.983E-03     333.892E-03    -165.909E-03     3.64323E-03     334.166E-03     70.9434E+06    -100.269E+06    -105.613E+06    -173.677E+06    -105.070E+06    -173.393E+06    -101.096E+06    -2.44223E+06
             733     40.7354E-03     14.3824E-03     38.1119E-03     328.744E-03    -160.589E-03    -168.155E-03    -156.473E-03     324.628E-03    -168.155E-03     88.2799E-03     355.203E-03     122.315E+06     136.087E+06     57.4850E+06    -4.72728E+06    -3.63120E+06     56.3889E+06     136.087E+06     2.28302E+06
             734     40.3173E-03     13.5261E-03     37.9806E-03     333.223E-03    -164.698E-03    -168.524E-03    -160.417E-03     328.941E-03    -168.524E-03     90.9258E-03     364.477E-03     83.4638E+06     71.5186E+06     24.6577E+06    -24.7381E+06    -17.3533E+06     17.2729E+06     71.5186E+06     2.07143E+06
             735     39.9464E-03     12.6773E-03     37.8814E-03     337.011E-03    -167.621E-03    -169.390E-03    -165.584E-03     334.351E-03    -168.767E-03     72.2521E-03     361.351E-03     63.7768E+06     37.6749E+06     475.226E+03    -35.6858E+06    -24.8267E+06    -10.3839E+06     37.6749E+06     6.27168E+06
             736     39.6101E-03     11.8305E-03     37.8021E-03     340.920E-03    -168.772E-03    -172.147E-03    -170.462E-03     339.235E-03    -168.772E-03     58.2884E-03     359.822E-03     57.2759E+06     33.4259E+06    -10.0279E+06    -31.0414E+06    -25.6351E+06    -15.4341E+06     33.4259E+06     3.22699E+06
             737     39.3034E-03     10.9904E-03     37.7355E-03     342.989E-03    -168.521E-03    -174.468E-03    -173.050E-03     341.571E-03    -168.521E-03     54.0774E-03     360.971E-03     59.5813E+06     37.2296E+06    -10.1689E+06    -29.4375E+06    -26.3940E+06    -13.2125E+06     37.2296E+06    -4.60774E+06
             738     39.0017E-03     10.1531E-03     37.6570E-03     339.934E-03    -167.799E-03    -172.134E-03    -170.524E-03     338.739E-03    -168.215E-03     49.0476E-03     355.304E-03     61.7821E+06     33.3232E+06    -11.2443E+06    -36.9949E+06    -34.2923E+06    -13.9469E+06     33.3232E+06    -4.37017E+06
             739     38.7348E-03     9.30466E-03     37.6007E-03     336.298E-03    -167.437E-03    -168.861E-03    -167.242E-03     335.365E-03    -168.123E-03     43.1864E-03     348.362E-03     62.3848E+06     28.0585E+06    -14.6189E+06    -43.4107E+06    -42.1127E+06    -15.9168E+06     28.0585E+06    -974.063E+03
             740     38.4916E-03     8.45759E-03     37.5509E-03     336.290E-03    -167.707E-03    -168.583E-03    -167.293E-03     335.477E-03    -168.183E-03     40.2933E-03     346.698E-03     61.9947E+06     27.5237E+06    -11.8486E+06    -43.8372E+06    -43.1852E+06    -12.5005E+06     27.5237E+06     3.17963E+06
             741     38.2691E-03     7.60999E-03     37.5049E-03     336.445E-03    -167.740E-03    -168.705E-03    -167.645E-03     335.836E-03    -168.191E-03     34.8343E-03     344.753E-03     56.9241E+06     13.6180E+06    -16.7162E+06    -51.8745E+06    -49.9233E+06    -18.6673E+06     13.6180E+06     2.87672E+06
             742     38.0673E-03     6.76274E-03     37.4618E-03     336.336E-03    -167.922E-03    -168.414E-03    -167.699E-03     335.867E-03    -168.167E-03     30.6087E-03     343.297E-03     49.3348E+06    -8.26008E+06    -32.9771E+06    -64.9920E+06    -63.2408E+06    -34.7283E+06    -8.26008E+06     2.23034E+06
             743     37.8944E-03     5.91867E-03     37.4293E-03     337.174E-03    -168.099E-03    -169.075E-03    -168.706E-03     336.805E-03    -168.099E-03     27.2351E-03     342.979E-03     43.6866E+06    -21.7204E+06    -45.4787E+06    -72.1104E+06    -71.8443E+06    -45.7448E+06    -21.7204E+06     1.06815E+06
             744     37.7380E-03     5.07466E-03     37.3953E-03     337.105E-03    -167.906E-03    -169.200E-03    -168.945E-03     336.865E-03    -167.920E-03     21.7716E-03     341.437E-03     39.8913E+06    -34.7453E+06    -61.3691E+06    -80.1108E+06    -79.4282E+06    -62.0516E+06    -34.7453E+06     741.244E+03
             745     37.6173E-03     4.23089E-03     37.3787E-03     335.485E-03    -167.080E-03    -168.404E-03    -167.537E-03     335.346E-03    -167.809E-03     16.5381E-03     338.419E-03     39.0186E+06    -50.0912E+06    -79.5906E+06    -94.2266E+06    -85.7013E+06    -88.1159E+06    -50.0912E+06     2.82509E+06
             746     37.5054E-03     3.38343E-03     37.3524E-03     334.701E-03    -166.446E-03    -168.254E-03    -166.675E-03     334.614E-03    -167.939E-03     12.8568E-03     336.558E-03     43.4976E+06    -66.3706E+06    -89.1438E+06    -115.762E+06    -89.8848E+06    -115.021E+06    -66.3706E+06     1.75974E+06
             747     37.4230E-03     2.53639E-03     37.3370E-03     335.925E-03    -167.145E-03    -168.780E-03    -167.737E-03     335.857E-03    -168.119E-03     11.5305E-03     337.024E-03     50.6702E+06    -80.6729E+06    -95.4343E+06    -136.892E+06    -95.6320E+06    -136.694E+06    -80.6729E+06     369.569E+03
             748     37.3642E-03     1.69039E-03     37.3260E-03     337.243E-03    -167.598E-03    -169.645E-03    -169.391E-03     337.186E-03    -167.795E-03     10.2507E-03     337.749E-03     55.9428E+06    -91.3150E+06    -99.8835E+06    -150.864E+06    -100.100E+06    -150.648E+06    -91.3150E+06     696.783E+03
             749     37.3286E-03     846.015E-06     37.3190E-03     335.165E-03    -166.410E-03    -168.756E-03    -168.536E-03     335.138E-03    -166.602E-03     4.83777E-03     335.382E-03     71.2063E+06    -103.044E+06    -107.978E+06    -176.513E+06    -107.455E+06    -176.208E+06    -103.872E+06    -1.95003E+06
             750     39.4446E-03     14.3863E-03     36.7275E-03     330.164E-03    -161.748E-03    -168.417E-03    -158.339E-03     326.756E-03    -168.417E-03     81.2423E-03     356.088E-03     125.847E+06     141.140E+06     58.4927E+06    -3.62170E+06    -2.55198E+06     57.4229E+06     141.140E+06     2.65565E+06
             751     39.0184E-03     13.5306E-03     36.5972E-03     333.336E-03    -164.657E-03    -168.679E-03    -161.072E-03     329.751E-03    -168.679E-03     83.9676E-03     363.439E-03     80.3339E+06     74.4526E+06     27.6882E+06    -18.1604E+06    -10.5312E+06     20.0589E+06     74.4526E+06     1.86026E+06
             752     38.6209E-03     12.6763E-03     36.4813E-03     336.930E-03    -167.222E-03    -169.708E-03    -165.681E-03     334.584E-03    -168.903E-03     67.6610E-03     361.594E-03     66.9632E+06     37.8959E+06    -2.46106E+06    -39.1198E+06    -26.1846E+06    -15.3963E+06     37.8959E+06    -1.30705E+06
             753     38.2737E-03     11.8317E-03     36.3990E-03     340.223E-03    -168.661E-03    -171.563E-03    -169.828E-03     338.791E-03    -168.963E-03     53.9673E-03     359.144E-03     65.8054E+06     44.7436E+06    -3.49151E+06    -29.9810E+06    -22.9796E+06    -10.4930E+06     44.7436E+06    -343.876E+03
             754     37.9457E-03     10.9907E-03     36.3192E-03     340.432E-03    -168.112E-03    -172.320E-03    -170.174E-03     338.969E-03    -168.795E-03     54.4331E-03     357.775E-03     55.6346E+06     36.2187E+06    -7.85579E+06    -26.2706E+06    -24.6103E+06    -9.51604E+06     36.2187E+06     2.67736E+06
             755     37.6506E-03     10.1454E-03     36.2579E-03     339.012E-03    -167.873E-03    -171.139E-03    -168.991E-03     337.662E-03    -168.671E-03     51.9478E-03     354.031E-03     54.1580E+06     24.5698E+06    -12.5502E+06    -37.2389E+06    -34.0519E+06    -15.7372E+06     24.5698E+06     2.58077E+06
             756     37.3821E-03     9.29753E-03     36.2074E-03     337.720E-03    -167.980E-03    -169.740E-03    -168.045E-03     336.711E-03    -168.666E-03     45.1200E-03     349.672E-03     56.1761E+06     20.6068E+06    -15.2402E+06    -44.0728E+06    -41.3200E+06    -17.9931E+06     20.6068E+06     362.594E+03
             757     37.1236E-03     8.44972E-03     36.1492E-03     337.893E-03    -168.414E-03    -169.479E-03    -168.385E-03     337.069E-03    -168.685E-03     40.6258E-03     348.633E-03     57.1502E+06     13.6449E+06    -22.2991E+06    -52.1082E+06    -51.4560E+06    -22.9513E+06     13.6449E+06    -2.58246E+06
             758     36.8956E-03     7.60800E-03     36.1027E-03     337.670E-03    -168.455E-03    -169.215E-03    -168.408E-03     337.108E-03    -168.701E-03     33.5013E-03     346.269E-03     59.5146E+06     12.8267E+06    -20.9455E+06    -55.7141E+06    -53.9864E+06    -22.6732E+06     12.8267E+06     962.159E+03
             759     36.6951E-03     6.76233E-03     36.0666E-03     337.151E-03    -168.378E-03    -168.773E-03    -167.986E-03     336.702E-03    -168.715E-03     30.0795E-03     344.224E-03     55.1545E+06     4.81351E+06    -26.8860E+06    -58.7478E+06    -57.0959E+06    -28.5379E+06     4.81351E+06     5.97842E+06
             760     36.5066E-03     5.91525E-03     36.0242E-03     337.586E-03    -168.566E-03    -169.020E-03    -168.527E-03     337.215E-03    -168.687E-03     27.1735E-03     343.559E-03     45.2250E+06    -15.0401E+06    -41.8875E+06    -67.2289E+06    -66.3736E+06    -42.7428E+06    -15.0401E+06     3.51362E+06
             761     36.3520E-03     5.07041E-03     35.9966E-03     338.053E-03    -168.545E-03    -169.509E-03    -169.253E-03     337.827E-03    -168.574E-03     21.1883E-03     342.221E-03     39.9298E+06    -33.7625E+06    -61.6019E+06    -79.0864E+06    -76.0087E+06    -64.6796E+06    -33.7625E+06     1.40768E+06
             762     36.2210E-03     4.22589E-03     35.9736E-03     337.529E-03    -168.346E-03    -169.184E-03    -168.978E-03     337.385E-03    -168.408E-03     17.0175E-03     340.330E-03     38.9723E+06    -48.8504E+06    -77.7613E+06    -92.9940E+06    -81.5094E+06    -89.2460E+06    -48.8504E+06     1.74502E+06
             763     36.1173E-03     3.38292E-03     35.9585E-03     335.978E-03    -167.389E-03    -168.589E-03    -167.448E-03     335.863E-03    -168.416E-03     15.1075E-03     337.832E-03     42.4944E+06    -65.5554E+06    -87.6979E+06    -114.014E+06    -88.4810E+06    -113.231E+06    -65.5554E+06     2.47028E+06
             764     36.0301E-03     2.53362E-03     35.9410E-03     336.087E-03    -167.338E-03    -168.749E-03    -167.245E-03     335.994E-03    -168.749E-03     13.5988E-03     337.222E-03     49.3982E+06    -80.4327E+06    -94.0918E+06    -134.757E+06    -94.4227E+06    -134.426E+06    -80.4327E+06     2.35523E+06
             765     35.9611E-03     1.68833E-03     35.9214E-03     337.669E-03    -168.217E-03    -169.452E-03    -168.420E-03     337.624E-03    -169.203E-03     8.55689E-03     338.198E-03     54.3523E+06    -90.1568E+06    -97.8331E+06    -147.789E+06    -98.1119E+06    -147.511E+06    -90.1568E+06     1.17399E+06
             766     35.9292E-03     844.340E-06     35.9192E-03     339.120E-03    -169.036E-03    -170.084E-03    -169.343E-03     339.114E-03    -169.771E-03     1.17868E-03     339.397E-03     75.9003E+06    -96.2152E+06    -102.494E+06    -175.011E+06    -100.976E+06    -174.929E+06    -97.8153E+06     521.449E+03
             767     38.1497E-03     14.3844E-03     35.3339E-03     332.642E-03    -164.413E-03    -168.230E-03    -161.307E-03     329.537E-03    -168.230E-03     77.9762E-03     359.532E-03     132.053E+06     139.285E+06     50.7786E+06    -12.4210E+06    -11.8885E+06     50.2461E+06     139.285E+06    -2.68499E+06
             768     37.7242E-03     13.5339E-03     35.2129E-03     334.949E-03    -166.613E-03    -168.336E-03    -163.384E-03     331.693E-03    -168.309E-03     80.2108E-03     364.179E-03     87.6463E+06     75.6800E+06     20.9737E+06    -25.1443E+06    -22.2614E+06     18.0909E+06     75.6800E+06     1.92867E+06
             769     37.3086E-03     12.6833E-03     35.0865E-03     334.411E-03    -165.422E-03    -168.989E-03    -163.670E-03     332.131E-03    -168.461E-03     66.6705E-03     357.070E-03     60.6310E+06     43.0709E+06     4.42752E+06    -26.4773E+06    -17.6222E+06    -4.42754E+06     43.0709E+06     1.70506E+06
             770     36.9394E-03     11.8375E-03     34.9913E-03     333.820E-03    -164.567E-03    -169.253E-03    -163.566E-03     332.318E-03    -168.752E-03     54.5093E-03     351.324E-03     57.4416E+06     35.0983E+06    -7.82561E+06    -29.9039E+06    -20.8509E+06    -16.8786E+06     35.0983E+06    -2.29055E+06
             771     36.6169E-03     10.9834E-03     34.9309E-03     335.150E-03    -166.074E-03    -169.076E-03    -164.618E-03     333.694E-03    -169.076E-03     53.7519E-03     351.277E-03     59.5521E+06     32.5231E+06    -14.9269E+06    -34.2658E+06    -31.0340E+06    -18.1588E+06     32.5231E+06     1.86941E+06
             772     36.2944E-03     10.1316E-03     34.8516E-03     338.567E-03    -168.262E-03    -170.306E-03    -168.085E-03     337.344E-03    -169.259E-03     48.9156E-03     353.235E-03     59.7738E+06     29.4504E+06    -14.3951E+06    -38.3091E+06    -36.2553E+06    -16.4488E+06     29.4504E+06     4.83660E+06
             773     36.0225E-03     9.29254E-03     34.8033E-03     340.676E-03    -169.195E-03    -171.481E-03    -170.665E-03     339.860E-03    -169.195E-03     40.7291E-03     352.309E-03     55.8744E+06     25.6679E+06    -11.4719E+06    -38.3635E+06    -35.9947E+06    -13.8407E+06     25.6679E+06     4.56766E+06
             774     35.7613E-03     8.45087E-03     34.7485E-03     339.066E-03    -168.696E-03    -170.370E-03    -169.311E-03     338.369E-03    -169.058E-03     37.5400E-03     349.057E-03     51.8775E+06     14.3085E+06    -16.9403E+06    -45.4812E+06    -44.0561E+06    -18.3653E+06     14.3085E+06     386.005E+03
             775     35.5239E-03     7.60193E-03     34.7009E-03     337.498E-03    -168.283E-03    -169.215E-03    -167.893E-03     336.979E-03    -169.086E-03     32.2314E-03     345.747E-03     55.6418E+06     5.58451E+06    -27.1724E+06    -58.6008E+06    -57.8138E+06    -27.9594E+06     5.58451E+06    -1.57041E+06
             776     35.3173E-03     6.75747E-03     34.6648E-03     337.983E-03    -168.655E-03    -169.328E-03    -168.317E-03     337.504E-03    -169.187E-03     31.0701E-03     345.404E-03     57.7447E+06     2.05349E+06    -32.8770E+06    -64.5906E+06    -64.0079E+06    -33.4597E+06     2.05349E+06    -13.6755E+03
             777     35.1257E-03     5.91326E-03     34.6243E-03     338.451E-03    -169.070E-03    -169.380E-03    -168.863E-03     338.055E-03    -169.192E-03     27.9190E-03     344.647E-03     48.4911E+06    -11.3135E+06    -40.1501E+06    -67.2778E+06    -66.4173E+06    -41.0106E+06    -11.3135E+06     1.99660E+06
             778     34.9627E-03     5.06792E-03     34.5935E-03     338.248E-03    -168.802E-03    -169.447E-03    -168.879E-03     338.041E-03    -169.162E-03     20.2620E-03     342.185E-03     40.3022E+06    -29.7548E+06    -57.9039E+06    -75.5299E+06    -72.1102E+06    -61.3236E+06    -29.7548E+06     3.81269E+06
             779     34.8287E-03     4.22374E-03     34.5716E-03     337.973E-03    -168.618E-03    -169.355E-03    -168.679E-03     337.853E-03    -169.174E-03     15.4415E-03     340.500E-03     39.8825E+06    -47.7939E+06    -77.2858E+06    -93.0022E+06    -80.6892E+06    -89.5987E+06    -47.7939E+06     3.01887E+06
             780     34.7233E-03     3.37636E-03     34.5588E-03     338.471E-03    -168.738E-03    -169.733E-03    -169.224E-03     338.375E-03    -169.152E-03     13.8562E-03     340.227E-03     42.6767E+06    -65.8186E+06    -88.2977E+06    -114.516E+06    -88.8965E+06    -113.917E+06    -65.8186E+06     2.53762E+06
             781     34.6326E-03     2.53461E-03     34.5397E-03     337.962E-03    -168.198E-03    -169.764E-03    -168.700E-03     337.882E-03    -169.183E-03     12.5485E-03     339.056E-03     47.3010E+06    -79.0705E+06    -93.5978E+06    -131.427E+06    -93.9915E+06    -131.033E+06    -79.0705E+06     2.52534E+06
             782     34.5624E-03     1.68885E-03     34.5212E-03     337.318E-03    -167.420E-03    -169.898E-03    -167.373E-03     337.271E-03    -169.898E-03     9.18149E-03     337.760E-03     50.8321E+06    -90.9356E+06    -97.2724E+06    -144.223E+06    -97.6755E+06    -143.820E+06    -90.9356E+06     1.57232E+06
             783     34.5264E-03     841.298E-06     34.5162E-03     341.474E-03    -169.727E-03    -171.747E-03    -169.756E-03     341.438E-03    -171.682E-03     6.84849E-03     341.694E-03     74.4315E+06    -98.5846E+06    -102.446E+06    -174.860E+06    -101.066E+06    -174.640E+06    -100.185E+06     20.6935E+03
             784     36.8774E-03     14.3953E-03     33.9517E-03     335.448E-03    -165.871E-03    -169.577E-03    -164.115E-03     332.015E-03    -167.900E-03     82.0089E-03     363.352E-03     131.520E+06     139.213E+06     52.0014E+06    -11.7742E+06    -9.93466E+06     50.1619E+06     139.213E+06     4.88344E+06
             785     36.4248E-03     13.5457E-03     33.8124E-03     336.800E-03    -167.281E-03    -169.519E-03    -165.547E-03     333.362E-03    -167.815E-03     82.2434E-03     365.050E-03     86.8453E+06     75.1427E+06     22.2220E+06    -24.8661E+06    -20.6539E+06     18.0099E+06     75.1427E+06    -1.93698E+06
             786     36.0133E-03     12.6989E-03     33.7001E-03     331.560E-03    -163.568E-03    -167.992E-03    -161.237E-03     329.202E-03    -167.966E-03     67.9856E-03     352.039E-03     58.7072E+06     45.4667E+06     4.58975E+06    -21.2562E+06    -16.4387E+06    -227.707E+03     45.4667E+06    -3.65293E+06
             787     35.6320E-03     11.8340E-03     33.6094E-03     329.913E-03    -161.496E-03    -168.417E-03    -159.925E-03     328.342E-03    -168.417E-03     54.4711E-03     346.430E-03     52.8912E+06     29.5801E+06    -12.1766E+06    -29.7602E+06    -24.4346E+06    -17.5022E+06     29.5801E+06     1.24421E+06
             788     35.2855E-03     10.9834E-03     33.5325E-03     333.468E-03    -164.565E-03    -168.903E-03    -163.418E-03     332.321E-03    -168.903E-03     47.5188E-03     349.394E-03     60.0588E+06     27.4891E+06    -18.2679E+06    -40.3266E+06    -34.8523E+06    -23.7422E+06     27.4891E+06    -2.30190E+06
             789     34.9582E-03     10.1389E-03     33.4556E-03     336.267E-03    -166.722E-03    -169.545E-03    -166.065E-03     335.301E-03    -169.236E-03     43.6316E-03     351.147E-03     64.5651E+06     35.8554E+06    -13.7969E+06    -36.9624E+06    -34.1920E+06    -16.5673E+06     35.8554E+06    -1.63018E+06
             790     34.6591E-03     9.28980E-03     33.3910E-03     337.979E-03    -167.395E-03    -170.585E-03    -167.903E-03     337.275E-03    -169.372E-03     37.7422E-03     349.717E-03     61.7681E+06     28.0994E+06    -17.2917E+06    -41.9674E+06    -40.9847E+06    -18.2744E+06     28.0994E+06     2.56512E+06
             791     34.4003E-03     8.44674E-03     33.3471E-03     338.501E-03    -168.166E-03    -170.336E-03    -168.403E-03     337.835E-03    -169.432E-03     36.7275E-03     348.933E-03     58.0241E+06     22.2065E+06    -13.9842E+06    -44.5951E+06    -42.5563E+06    -16.0230E+06     22.2065E+06     5.83098E+06
             792     34.1596E-03     7.60268E-03     33.3028E-03     338.199E-03    -168.630E-03    -169.569E-03    -168.137E-03     337.639E-03    -169.502E-03     33.5008E-03     346.730E-03     53.5733E+06     10.6018E+06    -20.3217E+06    -51.2397E+06    -49.5942E+06    -21.9673E+06     10.6018E+06     4.79136E+06
             793     33.9415E-03     6.75454E-03     33.2626E-03     339.006E-03    -169.107E-03    -169.899E-03    -168.987E-03     338.535E-03    -169.548E-03     30.8021E-03     346.249E-03     49.8265E+06    -8.20158E+06    -36.8827E+06    -65.7271E+06    -65.0390E+06    -37.5708E+06    -8.20158E+06    -1.66440E+06
             794     33.7418E-03     5.90959E-03     33.2203E-03     338.942E-03    -168.966E-03    -169.976E-03    -169.001E-03     338.588E-03    -169.587E-03     26.4537E-03     344.767E-03     46.4896E+06    -15.6132E+06    -45.2279E+06    -68.7076E+06    -68.2235E+06    -45.7120E+06    -15.6132E+06    -2.20768E+06
             795     33.5748E-03     5.06633E-03     33.1903E-03     338.026E-03    -168.231E-03    -169.795E-03    -168.129E-03     337.820E-03    -169.691E-03     20.2616E-03     341.955E-03     38.9093E+06    -30.8846E+06    -60.4188E+06    -74.4860E+06    -73.3118E+06    -61.5930E+06    -30.8846E+06     2.11124E+06
             796     33.4395E-03     4.21945E-03     33.1722E-03     339.114E-03    -168.821E-03    -170.292E-03    -169.152E-03     338.977E-03    -169.824E-03     16.5514E-03     341.774E-03     38.5708E+06    -50.3571E+06    -79.2325E+06    -93.9895E+06    -83.3982E+06    -89.8238E+06    -50.3571E+06     2.94154E+06
             797     33.3241E-03     3.37723E-03     33.1525E-03     340.362E-03    -169.557E-03    -170.805E-03    -170.511E-03     340.267E-03    -169.755E-03     13.8340E-03     342.130E-03     43.4553E+06    -62.3273E+06    -86.0007E+06    -111.882E+06    -86.6432E+06    -111.240E+06    -62.3273E+06     2.80397E+06
             798     33.2309E-03     2.53388E-03     33.1342E-03     339.384E-03    -169.007E-03    -170.378E-03    -169.734E-03     339.323E-03    -169.589E-03     11.0793E-03     340.422E-03     47.2836E+06    -76.9671E+06    -92.3412E+06    -129.636E+06    -92.6319E+06    -129.345E+06    -76.9671E+06     1.68384E+06
             799     33.1712E-03     1.68700E-03     33.1283E-03     338.943E-03    -168.000E-03    -170.943E-03    -169.215E-03     338.904E-03    -169.689E-03     8.27896E-03     339.400E-03     51.2518E+06    -88.1915E+06    -98.6907E+06    -143.487E+06    -98.9306E+06    -143.247E+06    -88.1915E+06     590.965E+03
             800     33.1161E-03     840.316E-06     33.1055E-03     339.966E-03    -168.617E-03    -171.349E-03    -169.899E-03     339.929E-03    -170.029E-03     5.78287E-03     340.201E-03     70.1099E+06    -98.3425E+06    -105.138E+06    -171.352E+06    -104.335E+06    -170.809E+06    -99.6875E+06     2.44278E+06
             801     35.5984E-03     14.3924E-03     32.5592E-03     336.927E-03    -166.702E-03    -170.225E-03    -165.723E-03     333.356E-03    -167.634E-03     83.3692E-03     365.535E-03     129.376E+06     140.568E+06     55.1635E+06    -8.00185E+06    -6.17417E+06     53.3358E+06     140.568E+06     2.44627E+06
             802     35.1271E-03     13.5475E-03     32.4096E-03     335.400E-03    -166.155E-03    -169.245E-03    -164.148E-03     331.716E-03    -167.568E-03     84.8231E-03     364.302E-03     86.3295E+06     88.3169E+06     39.1633E+06    -11.2737E+06    -3.98411E+06     31.8737E+06     88.3169E+06     4.71217E+06
             803     34.7244E-03     12.6915E-03     32.3220E-03     333.322E-03    -164.908E-03    -168.414E-03    -163.312E-03     330.980E-03    -167.668E-03     67.9671E-03     354.367E-03       64.93E+06     42.0015E+06    -1.70679E+06    -31.5025E+06    -25.3994E+06    -7.80993E+06     42.0015E+06    -583.499E+03
             804     34.3268E-03     11.8468E-03     32.2177E-03     331.974E-03    -163.287E-03    -168.687E-03    -162.503E-03     330.445E-03    -167.941E-03     53.9309E-03     349.918E-03     59.7549E+06     29.3575E+06    -18.7941E+06    -37.4297E+06    -35.0598E+06    -21.1640E+06     29.3575E+06    -1.52701E+06
             805     33.9706E-03     10.9964E-03     32.1415E-03     331.440E-03    -163.117E-03    -168.323E-03    -161.854E-03     330.177E-03    -168.323E-03     49.2683E-03     348.696E-03     55.2150E+06     28.8171E+06    -11.9968E+06    -33.8992E+06    -28.9628E+06    -16.9333E+06     28.8171E+06    -1.86325E+06
             806     33.6237E-03     10.1432E-03     32.0573E-03     332.597E-03    -163.803E-03    -168.794E-03    -162.633E-03     331.427E-03    -168.794E-03     47.2465E-03     347.861E-03     57.0065E+06     24.6107E+06    -17.6753E+06    -40.0743E+06    -36.5212E+06    -21.2285E+06     24.6107E+06    -2.17957E+06
             807     33.3221E-03     9.29355E-03     31.9999E-03     333.595E-03    -164.278E-03    -169.317E-03    -163.494E-03     332.812E-03    -169.317E-03     39.4203E-03     344.996E-03     64.3225E+06     27.4852E+06    -20.8421E+06    -45.4183E+06    -44.7587E+06    -21.5017E+06     27.4852E+06    -902.049E+03
             808     33.0387E-03     8.44086E-03     31.9423E-03     336.494E-03    -166.768E-03    -169.726E-03    -166.108E-03     335.834E-03    -169.726E-03     36.1153E-03     346.771E-03     64.4963E+06     25.6909E+06    -17.5927E+06    -48.2067E+06    -46.9184E+06    -18.8811E+06     25.6909E+06     2.79712E+06
             809     32.7931E-03     7.59463E-03     31.9015E-03     339.369E-03    -169.291E-03    -170.078E-03    -168.963E-03     338.837E-03    -169.874E-03     32.6985E-03     348.048E-03     55.2618E+06     11.2557E+06    -22.2170E+06    -52.4354E+06    -50.9400E+06    -23.7123E+06     11.2557E+06     4.76519E+06
             810     32.5644E-03     6.75361E-03     31.8563E-03     339.802E-03    -169.516E-03    -170.286E-03    -169.439E-03     339.321E-03    -169.882E-03     31.1873E-03     347.305E-03     44.4702E+06    -889.710E+03    -26.9372E+06    -52.2069E+06    -51.4370E+06    -27.7071E+06    -889.710E+03     1.51828E+06
             811     32.3619E-03     5.91079E-03     31.8175E-03     338.742E-03    -168.574E-03    -170.168E-03    -168.427E-03     338.395E-03    -169.968E-03     26.2010E-03     344.520E-03     41.8626E+06    -19.5451E+06    -49.6875E+06    -66.6148E+06    -66.0015E+06    -50.3008E+06    -19.5451E+06     167.952E+03
             812     32.1922E-03     5.06145E-03     31.7918E-03     338.616E-03    -168.425E-03    -170.191E-03    -168.220E-03     338.412E-03    -170.191E-03     20.2577E-03     342.554E-03     39.3089E+06    -34.8984E+06    -68.6326E+06    -78.0498E+06    -76.4533E+06    -70.2292E+06    -34.8984E+06     2.08639E+06
             813     32.0448E-03     4.21700E-03     31.7661E-03     339.973E-03    -169.112E-03    -170.861E-03    -169.425E-03     339.818E-03    -170.393E-03     17.7612E-03     342.788E-03     36.3279E+06    -48.4659E+06    -76.1865E+06    -89.3220E+06    -79.5669E+06    -85.9416E+06    -48.4659E+06     2.93812E+06
             814     31.9222E-03     3.37463E-03     31.7433E-03     340.913E-03    -169.884E-03    -171.029E-03    -170.338E-03     340.798E-03    -170.460E-03     15.1240E-03     342.897E-03     40.9794E+06    -64.3321E+06    -86.5336E+06    -111.216E+06    -87.2456E+06    -110.504E+06    -64.3321E+06     925.068E+03
             815     31.8360E-03     2.52979E-03     31.7353E-03     341.677E-03    -170.235E-03    -171.443E-03    -171.338E-03     341.607E-03    -170.269E-03     11.9158E-03     342.806E-03     48.4142E+06    -75.1271E+06    -89.4721E+06    -128.672E+06    -89.8362E+06    -128.308E+06    -75.1271E+06     1.31292E+06
             816     31.7612E-03     1.68982E-03     31.7162E-03     341.607E-03    -169.430E-03    -172.178E-03    -172.119E-03     341.549E-03    -169.430E-03     9.90867E-03     342.093E-03     54.8089E+06    -84.3624E+06    -92.9195E+06    -142.708E+06    -93.0850E+06    -142.542E+06    -84.3624E+06     1.57701E+06
             817     31.7181E-03     853.218E-06     31.7066E-03     337.862E-03    -167.680E-03    -170.181E-03    -170.118E-03     337.799E-03    -167.680E-03     7.66804E-03     338.120E-03     72.6427E+06    -90.4793E+06    -97.6561E+06    -166.192E+06    -96.8286E+06    -165.674E+06    -91.8244E+06     1.58511E+06
             818     34.3328E-03     14.4079E-03     31.1633E-03     337.683E-03    -167.047E-03    -170.636E-03    -166.702E-03     334.178E-03    -167.475E-03     82.5209E-03     365.939E-03     128.515E+06     135.390E+06     48.7950E+06    -12.2148E+06    -11.6553E+06     48.2355E+06     135.390E+06    -5.27540E+06
             819     33.8610E-03     13.5463E-03     31.0333E-03     336.239E-03    -166.383E-03    -169.855E-03    -165.356E-03     332.712E-03    -167.355E-03     82.6924E-03     366.119E-03     91.6716E+06     87.4280E+06     30.5190E+06    -18.1959E+06    -13.6993E+06     26.0224E+06     87.4280E+06    -232.726E+03
             820     33.4238E-03     12.7001E-03     30.9170E-03     334.282E-03    -165.182E-03    -169.100E-03    -164.955E-03     332.277E-03    -167.322E-03     63.1213E-03     355.472E-03     66.9711E+06     43.1491E+06    -1.63466E+06    -33.2400E+06    -26.7383E+06    -8.13633E+06     43.1491E+06     4.68413E+06
             821     33.0269E-03     11.8530E-03     30.8266E-03     331.179E-03    -162.922E-03    -168.256E-03    -162.093E-03     329.604E-03    -167.511E-03     55.5824E-03     349.471E-03     57.5543E+06     30.1541E+06    -16.4789E+06    -33.9484E+06    -30.4369E+06    -19.9903E+06     30.1541E+06     908.188E+03
             822     32.6650E-03     10.9977E-03     30.7579E-03     330.260E-03    -162.306E-03    -167.954E-03    -160.710E-03     328.664E-03    -167.954E-03     55.7819E-03     347.314E-03     55.9532E+06     33.2798E+06    -11.3421E+06    -29.3094E+06    -26.4273E+06    -14.2242E+06     33.2798E+06     2.47508E+06
             823     32.3001E-03     10.1444E-03     30.6657E-03     330.576E-03    -162.064E-03    -168.512E-03    -160.764E-03     329.276E-03    -168.512E-03     49.6350E-03     344.788E-03     54.5915E+06     24.0330E+06    -17.0772E+06    -37.8847E+06    -35.7495E+06    -19.2124E+06     24.0330E+06     3.18585E+06
             824     31.9872E-03     9.29202E-03     30.6078E-03     332.132E-03    -162.993E-03    -169.139E-03    -162.133E-03     331.272E-03    -169.139E-03     41.2282E-03     343.708E-03     57.1745E+06     21.9868E+06    -20.6573E+06    -42.9555E+06    -42.3643E+06    -21.2485E+06     21.9868E+06    -1.77168E+06
             825     31.6923E-03     8.44373E-03     30.5468E-03     335.804E-03    -166.160E-03    -169.645E-03    -165.471E-03     335.115E-03    -169.645E-03     36.6753E-03     345.852E-03     59.9941E+06     18.6415E+06    -23.3874E+06    -49.9993E+06    -49.4048E+06    -23.9818E+06     18.6415E+06    -2.54724E+06
             826     31.4268E-03     7.59790E-03     30.4945E-03     338.091E-03    -168.024E-03    -170.066E-03    -167.701E-03     337.630E-03    -169.929E-03     30.4678E-03     346.149E-03     56.3761E+06     12.1232E+06    -25.0553E+06    -52.7364E+06    -52.2400E+06    -25.5517E+06     12.1232E+06    -1.00541E+06
             827     31.1924E-03     6.75119E-03     30.4530E-03     338.713E-03    -168.470E-03    -170.243E-03    -168.196E-03     338.302E-03    -170.106E-03     28.6530E-03     345.746E-03     49.0184E+06     1.22771E+06    -29.4904E+06    -55.2693E+06    -54.2220E+06    -30.5376E+06     1.22771E+06     3.85487E+06
             828     30.9832E-03     5.90271E-03     30.4157E-03     338.966E-03    -168.687E-03    -170.280E-03    -168.391E-03     338.670E-03    -170.280E-03     23.9046E-03     344.392E-03     41.7164E+06    -19.0320E+06    -46.2686E+06    -66.5087E+06    -64.8783E+06    -47.8991E+06    -19.0320E+06     5.40631E+06
             829     30.8060E-03     5.06158E-03     30.3874E-03     339.395E-03    -168.884E-03    -170.511E-03    -168.696E-03     339.207E-03    -170.511E-03     19.4034E-03     343.241E-03     39.8626E+06    -34.8515E+06    -65.4459E+06    -79.3754E+06    -76.1717E+06    -68.6496E+06    -34.8515E+06     1.34276E+06
             830     30.6523E-03     4.21744E-03     30.3608E-03     339.485E-03    -168.634E-03    -170.852E-03    -168.474E-03     339.325E-03    -170.852E-03     18.0074E-03     342.317E-03     38.5235E+06    -46.5267E+06    -75.6941E+06    -90.0038E+06    -79.8925E+06    -85.8053E+06    -46.5267E+06     1.15920E+06
             831     30.5278E-03     3.36941E-03     30.3412E-03     341.031E-03    -169.715E-03    -171.317E-03    -169.687E-03     340.903E-03    -171.216E-03     16.0908E-03     343.145E-03     38.9995E+06    -64.8507E+06    -83.0776E+06    -108.641E+06    -83.6979E+06    -108.021E+06    -64.8507E+06     1.14634E+06
             832     30.4261E-03     2.52872E-03     30.3209E-03     343.034E-03    -170.722E-03    -172.312E-03    -171.595E-03     342.941E-03    -171.346E-03     13.8175E-03     344.274E-03     47.6722E+06    -78.4775E+06    -89.4440E+06    -130.577E+06    -89.7035E+06    -130.317E+06    -78.4775E+06    -928.300E+03
             833     30.3571E-03     1.68718E-03     30.3102E-03     342.811E-03    -169.997E-03    -172.814E-03    -171.407E-03     342.728E-03    -171.320E-03     12.9740E-03     343.268E-03     54.3458E+06    -85.9906E+06    -92.0853E+06    -142.977E+06    -92.2813E+06    -142.781E+06    -85.9906E+06     918.264E+03
             834     30.3146E-03     838.000E-06     30.3030E-03     343.076E-03    -170.307E-03    -172.769E-03    -171.412E-03     343.000E-03    -171.588E-03     11.1838E-03     343.259E-03     70.7928E+06    -89.1260E+06    -93.9802E+06    -162.187E+06    -92.0434E+06    -161.930E+06    -91.3190E+06    -1.65930E+06
             835     33.0712E-03     14.3909E-03     29.7759E-03     340.120E-03    -167.092E-03    -173.027E-03    -168.876E-03     336.414E-03    -167.539E-03     85.5129E-03     369.045E-03     127.314E+06     132.617E+06     46.4493E+06    -13.5438E+06    -12.9748E+06     45.8803E+06     132.617E+06    -460.930E+03
             836     32.5829E-03     13.5560E-03     29.6291E-03     340.266E-03    -167.213E-03    -173.053E-03    -169.113E-03     336.326E-03    -167.213E-03     88.5210E-03     372.046E-03     88.0636E+06     70.4637E+06     12.3820E+06    -30.7884E+06    -29.2334E+06     10.8269E+06     70.4637E+06    -6.50868E+06
             837     32.1461E-03     12.7106E-03     29.5265E-03     332.343E-03    -164.019E-03    -168.325E-03    -162.674E-03     329.869E-03    -167.195E-03     69.3633E-03     353.950E-03     63.9063E+06     48.3564E+06     1.76071E+06    -24.1407E+06    -20.3474E+06    -2.03254E+06     48.3564E+06    -2.48825E+06
             838     31.7427E-03     11.8496E-03     29.4480E-03     330.486E-03    -162.965E-03    -167.522E-03    -160.848E-03     328.369E-03    -167.522E-03     64.1251E-03     349.053E-03     55.8685E+06     36.4715E+06    -9.96076E+06    -25.2682E+06    -22.4575E+06    -12.7715E+06     36.4715E+06     3.29299E+06
             839     31.3535E-03     10.9991E-03     29.3608E-03     333.025E-03    -165.103E-03    -167.921E-03    -163.259E-03     331.180E-03    -167.921E-03     60.0961E-03     349.986E-03     60.2286E+06     29.5333E+06    -19.3672E+06    -37.5343E+06    -35.3485E+06    -21.5529E+06     29.5333E+06     1.70425E+06
             840     30.9919E-03     10.1499E-03     29.2827E-03     332.109E-03    -163.776E-03    -168.333E-03    -162.538E-03     330.871E-03    -168.333E-03     49.0701E-03     345.554E-03     60.7917E+06     32.8057E+06    -14.2830E+06    -35.8111E+06    -33.7879E+06    -16.3062E+06     32.8057E+06     1.50701E+06
             841     30.6593E-03     9.29491E-03     29.2164E-03     332.430E-03    -163.655E-03    -168.775E-03    -162.774E-03     331.549E-03    -168.775E-03     41.6465E-03     343.834E-03     51.9466E+06     20.5999E+06    -18.9337E+06    -38.1882E+06    -37.9189E+06    -19.2030E+06     20.5999E+06     354.418E+03
             842     30.3446E-03     8.44643E-03     29.1453E-03     334.025E-03    -164.760E-03    -169.264E-03    -164.062E-03     333.326E-03    -169.264E-03     37.0968E-03     343.929E-03     50.3947E+06     11.3532E+06    -23.3904E+06    -46.3992E+06    -45.8071E+06    -23.9824E+06     11.3532E+06    -2.92389E+06
             843     30.0726E-03     7.59846E-03     29.0968E-03     335.698E-03    -165.942E-03    -169.756E-03    -165.387E-03     335.143E-03    -169.756E-03     33.2762E-03     343.979E-03     54.2308E+06     8.13098E+06    -27.6493E+06    -54.2640E+06    -53.7457E+06    -28.1677E+06     8.13098E+06    -1.53478E+06
             844     29.8251E-03     6.75122E-03     29.0510E-03     338.345E-03    -168.244E-03    -170.101E-03    -167.827E-03     337.929E-03    -170.101E-03     28.6344E-03     345.108E-03     55.2659E+06    -3.37867E+06    -39.6581E+06    -66.9382E+06    -66.2004E+06    -40.3960E+06    -3.37867E+06     2.99586E+06
             845     29.6084E-03     5.90864E-03     29.0128E-03     338.856E-03    -168.538E-03    -170.318E-03    -168.298E-03     338.616E-03    -170.318E-03     21.8309E-03     343.918E-03     47.9740E+06    -13.2842E+06    -42.9932E+06    -68.5438E+06    -67.1280E+06    -44.4090E+06    -13.2842E+06     5.03040E+06
             846     29.4201E-03     5.06043E-03     28.9816E-03     338.594E-03    -167.993E-03    -170.601E-03    -167.823E-03     338.425E-03    -170.601E-03     18.4158E-03     342.311E-03     37.3612E+06    -31.1178E+06    -54.7227E+06    -74.0412E+06    -68.9513E+06    -59.8126E+06    -31.1178E+06     2.56578E+06
             847     29.2655E-03     4.21333E-03     28.9606E-03     339.563E-03    -168.520E-03    -171.043E-03    -168.376E-03     339.418E-03    -171.043E-03     17.0512E-03     342.298E-03     36.8757E+06    -50.2938E+06    -75.9707E+06    -92.4576E+06    -79.7944E+06    -88.6339E+06    -50.2938E+06    -955.547E+03
             848     29.1288E-03     3.37032E-03     28.9332E-03     340.588E-03    -168.967E-03    -171.621E-03    -168.844E-03     340.465E-03    -171.621E-03     15.7663E-03     342.543E-03     40.0046E+06    -62.3523E+06    -84.0910E+06    -107.579E+06    -84.8547E+06    -106.816E+06    -62.3523E+06      277.57E+03
             849     29.0219E-03     2.52470E-03     28.9119E-03     342.035E-03    -169.623E-03    -172.413E-03    -169.529E-03     341.941E-03    -172.413E-03     13.7784E-03     343.285E-03     46.6715E+06    -78.1769E+06    -89.6039E+06    -128.765E+06    -89.8168E+06    -128.553E+06    -78.1769E+06     377.051E+03
             850     28.9513E-03     1.67908E-03     28.9026E-03     345.088E-03    -171.180E-03    -173.908E-03    -171.687E-03     345.032E-03    -173.345E-03     10.2763E-03     345.632E-03     54.2133E+06    -87.8765E+06    -94.6353E+06    -145.099E+06    -94.9076E+06    -144.827E+06    -87.8765E+06    -2.17981E+06
             851     28.9031E-03     840.150E-06     28.8908E-03     347.965E-03    -173.046E-03    -174.919E-03    -173.584E-03     347.939E-03    -174.355E-03     6.68092E-03     348.085E-03     68.2869E+06    -92.9104E+06    -100.513E+06    -164.656E+06    -98.7982E+06    -164.178E+06    -95.1034E+06    -893.753E+03
             852     31.8068E-03     14.3968E-03     28.3620E-03     338.469E-03    -167.240E-03    -171.229E-03    -166.951E-03     334.637E-03    -167.686E-03     86.9792E-03     366.260E-03     124.918E+06     136.390E+06     50.6962E+06    -6.79621E+06    -6.43649E+06     50.3365E+06     136.390E+06     2.93603E+06
             853     31.3130E-03     13.5486E-03     28.2301E-03     338.175E-03    -167.257E-03    -170.919E-03    -166.667E-03     334.155E-03    -167.488E-03     89.3897E-03     367.345E-03     76.4817E+06     72.0158E+06     18.9889E+06    -15.1789E+06    -14.7012E+06     18.5111E+06     72.0158E+06    -765.586E+03
             854     30.8713E-03     12.6927E-03     28.1413E-03     334.232E-03    -165.716E-03    -168.516E-03    -164.174E-03     331.700E-03    -167.527E-03     70.2030E-03     353.964E-03     58.8545E+06     40.4889E+06    -8.45099E+06    -24.5459E+06    -23.8345E+06    -9.16239E+06     40.4889E+06    -2.37332E+06
             855     30.4588E-03     11.8441E-03     28.0616E-03     334.608E-03    -165.986E-03    -168.622E-03    -164.816E-03     332.546E-03    -167.730E-03     63.5962E-03     351.773E-03     61.3205E+06     38.5961E+06    -15.2481E+06    -28.1073E+06    -27.6744E+06    -15.6811E+06     38.5961E+06    -343.989E+03
             856     30.0437E-03     10.9960E-03     27.9591E-03     334.660E-03    -166.756E-03    -167.903E-03    -165.062E-03     332.966E-03    -167.903E-03     57.4016E-03     350.258E-03     59.7192E+06     32.6255E+06    -18.5949E+06    -32.7191E+06    -31.7277E+06    -19.5863E+06     32.6255E+06    -1.10993E+06
             857     29.6829E-03     10.1480E-03     27.8943E-03     334.500E-03    -166.258E-03    -168.242E-03    -165.218E-03     333.308E-03    -168.090E-03     48.7047E-03     347.405E-03     58.2599E+06     26.2347E+06    -20.9990E+06    -38.6904E+06    -37.4568E+06    -22.2326E+06     26.2347E+06    -2.72236E+06
             858     29.3327E-03     9.30396E-03     27.8181E-03     333.638E-03    -165.130E-03    -168.508E-03    -164.330E-03     332.687E-03    -168.356E-03     43.3380E-03     344.673E-03     55.3206E+06     23.1454E+06    -19.5686E+06    -39.3147E+06    -38.8956E+06    -19.9876E+06     23.1454E+06    -427.001E+03
             859     29.0162E-03     8.45268E-03     27.7577E-03     332.142E-03    -163.353E-03    -168.789E-03    -162.670E-03     331.459E-03    -168.789E-03     36.6650E-03     341.205E-03     50.9394E+06     12.3247E+06    -23.7723E+06    -45.8763E+06    -45.8209E+06    -23.8278E+06     12.3247E+06    -3.40268E+03
             860     28.7244E-03     7.59766E-03     27.7014E-03     334.126E-03    -164.774E-03    -169.352E-03    -164.231E-03     333.583E-03    -169.352E-03     32.7511E-03     341.804E-03     53.3840E+06     4.98817E+06    -30.9505E+06    -56.3426E+06    -56.1081E+06    -31.1850E+06     4.98817E+06     983.158E+03
             861     28.4575E-03     6.75197E-03     27.6449E-03     336.755E-03    -166.952E-03    -169.803E-03    -166.569E-03     336.372E-03    -169.803E-03     27.1747E-03     343.064E-03     53.5893E+06    -1.64949E+06    -37.4200E+06    -63.2180E+06    -62.3237E+06    -38.3144E+06    -1.64949E+06    -193.789E+03
             862     28.2344E-03     5.90615E-03     27.6098E-03     337.526E-03    -167.388E-03    -170.137E-03    -167.157E-03     337.295E-03    -170.137E-03     21.4242E-03     342.369E-03     46.7192E+06    -16.4772E+06    -46.5895E+06     -70.244E+06    -69.4006E+06    -47.4328E+06    -16.4772E+06    -384.519E+03
             863     28.0438E-03     5.06074E-03     27.5834E-03     338.659E-03    -168.189E-03    -170.470E-03    -168.025E-03     338.495E-03    -170.470E-03     18.1221E-03     342.150E-03     39.3037E+06    -32.2134E+06    -56.3286E+06    -77.5443E+06    -74.3512E+06    -59.5217E+06    -32.2134E+06     4.50633E+06
             864     27.8732E-03     4.21644E-03     27.5525E-03     339.775E-03    -168.974E-03    -170.801E-03    -168.860E-03     339.661E-03    -170.801E-03     15.1829E-03     342.224E-03     35.8047E+06    -49.3734E+06    -71.1242E+06    -90.6788E+06    -79.3572E+06    -82.4457E+06    -49.3734E+06     3.41953E+06
             865     27.7350E-03     3.37118E-03     27.5294E-03     339.916E-03    -168.622E-03    -171.294E-03    -168.540E-03     339.834E-03    -171.294E-03     12.6955E-03     341.592E-03     38.7755E+06    -65.7104E+06    -86.6396E+06    -110.173E+06    -88.0376E+06    -108.775E+06    -65.7104E+06    -37.3117E+03
             866     27.6251E-03     2.52350E-03     27.5096E-03     341.233E-03    -169.114E-03    -172.119E-03    -169.058E-03     341.176E-03    -172.119E-03     10.4468E-03     342.269E-03     45.5644E+06    -77.2613E+06     -92.072E+06    -127.733E+06    -92.3219E+06    -127.483E+06    -77.2613E+06     576.206E+03
             867     27.5357E-03     1.68145E-03     27.4843E-03     344.637E-03    -171.101E-03    -173.536E-03    -171.626E-03     344.599E-03    -172.972E-03     8.62393E-03     345.125E-03     52.2291E+06    -87.7338E+06    -95.1214E+06    -142.997E+06    -95.2988E+06    -142.730E+06    -87.8229E+06    -88.1413E+03
             868     27.4849E-03     842.632E-06     27.4720E-03     347.022E-03    -172.555E-03    -174.467E-03    -173.831E-03     346.991E-03    -173.160E-03     7.88824E-03     347.151E-03     73.6260E+06    -93.1729E+06    -101.643E+06    -170.592E+06    -98.2236E+06    -170.136E+06    -97.0482E+06     403.140E+03
             869     30.5730E-03     14.3947E-03     26.9722E-03     336.033E-03    -167.548E-03    -168.485E-03    -164.284E-03     332.077E-03    -167.793E-03     88.5433E-03     361.566E-03     127.723E+06     139.549E+06     50.9501E+06    -6.75315E+06    -5.98263E+06     50.1796E+06     139.549E+06     2.17054E+06
             870     30.0611E-03     13.5376E-03     26.8403E-03     336.162E-03    -167.528E-03    -168.633E-03    -165.056E-03     332.815E-03    -167.759E-03     80.5045E-03     361.487E-03     84.2311E+06     85.4199E+06     27.9547E+06    -10.8237E+06    -8.25553E+06     25.3865E+06     85.4199E+06     7.91951E+06
             871     29.6039E-03     12.6930E-03     26.7447E-03     337.369E-03    -167.438E-03    -169.931E-03    -167.802E-03     335.471E-03    -167.669E-03     61.4937E-03     356.134E-03     58.7407E+06     42.0843E+06    -4.48780E+06    -23.2047E+06    -19.8471E+06    -7.84539E+06     42.0843E+06     3.22550E+06
             872     29.1733E-03     11.8521E-03     26.6573E-03     337.087E-03    -167.423E-03    -169.665E-03    -167.916E-03     335.498E-03    -167.582E-03     56.6302E-03     353.289E-03     55.8837E+06     31.3206E+06    -11.9526E+06    -29.9758E+06    -23.9053E+06    -18.0232E+06     31.3206E+06    -6.17385E+06
             873     28.7629E-03     11.0031E-03     26.5751E-03     334.086E-03    -166.221E-03    -167.865E-03    -164.954E-03     332.606E-03    -167.652E-03     54.1627E-03     347.811E-03     58.7127E+06     31.6003E+06    -14.3695E+06    -32.6536E+06    -27.9753E+06    -19.0479E+06     31.6003E+06    -4.67098E+06
             874     28.3709E-03     10.1527E-03     26.4920E-03     333.807E-03    -165.809E-03    -167.998E-03    -164.714E-03     332.560E-03    -167.847E-03     49.7140E-03     345.400E-03     56.0344E+06     24.4163E+06    -22.2987E+06    -37.5155E+06    -36.5105E+06    -23.3037E+06     24.4163E+06     737.415E+03
             875     28.0145E-03     9.30363E-03     26.4245E-03     334.332E-03    -166.095E-03    -168.237E-03    -165.256E-03     333.342E-03    -168.085E-03     44.2648E-03     344.655E-03     58.9919E+06     20.0731E+06    -25.2584E+06    -46.6133E+06    -45.3373E+06    -26.5344E+06     20.0731E+06    -327.538E+03
             876     27.6896E-03     8.45415E-03     26.3675E-03     334.328E-03    -165.958E-03    -168.370E-03    -165.249E-03     333.604E-03    -168.355E-03     37.9593E-03     342.987E-03     61.0826E+06     20.4939E+06    -23.3057E+06    -49.1966E+06    -47.8673E+06    -24.6350E+06     20.4939E+06     1.98253E+06
             877     27.3831E-03     7.61006E-03     26.3044E-03     334.070E-03    -165.396E-03    -168.674E-03    -164.850E-03     333.508E-03    -168.658E-03     33.2850E-03     341.201E-03     54.2944E+06     9.98315E+06    -26.7276E+06    -52.3768E+06    -50.8826E+06    -28.2218E+06     9.98315E+06     2.87053E+06
             878     27.1055E-03     6.75955E-03     26.2491E-03     333.569E-03    -164.466E-03    -169.103E-03    -164.114E-03     333.217E-03    -169.103E-03     25.9095E-03     339.217E-03     46.5934E+06    -6.55649E+06    -37.5252E+06    -60.1009E+06    -58.7276E+06    -38.8985E+06    -6.55649E+06    -634.587E+03
             879     26.8695E-03     5.90829E-03     26.2119E-03     335.401E-03    -165.762E-03    -169.640E-03    -165.564E-03     335.203E-03    -169.640E-03     19.8132E-03     339.820E-03     43.1020E+06    -20.7007E+06    -49.1714E+06    -70.2564E+06    -69.1075E+06    -50.3203E+06    -20.7007E+06    -1.49433E+06
             880     26.6612E-03     5.06274E-03     26.1761E-03     338.134E-03    -168.092E-03    -170.042E-03    -167.935E-03     337.977E-03    -170.042E-03     17.8231E-03     341.554E-03     40.1980E+06    -33.1312E+06    -60.7826E+06    -78.9408E+06    -77.7049E+06    -62.0185E+06    -33.1312E+06    -105.178E+03
             881     26.4878E-03     4.21889E-03     26.1497E-03     339.490E-03    -169.051E-03    -170.439E-03    -169.112E-03     339.375E-03    -170.263E-03     15.1915E-03     341.888E-03     35.9788E+06    -47.3860E+06    -72.2642E+06    -88.2424E+06    -80.7138E+06    -79.7928E+06    -47.3860E+06     3.58847E+06
             882     26.3426E-03     3.37341E-03     26.1257E-03     340.388E-03    -169.386E-03    -171.003E-03    -169.955E-03     340.318E-03    -170.364E-03     11.7940E-03     341.885E-03     36.5081E+06    -64.8965E+06    -82.4304E+06    -106.123E+06    -84.2353E+06    -104.318E+06    -64.8965E+06     3.64653E+06
             883     26.2245E-03     2.53266E-03     26.1019E-03     340.713E-03    -169.570E-03    -171.144E-03    -170.257E-03     340.665E-03    -170.409E-03     9.74626E-03     341.512E-03     44.4743E+06    -78.4450E+06    -89.9639E+06    -127.385E+06    -90.4978E+06    -126.851E+06    -78.4450E+06     648.854E+03
             884     26.1333E-03     1.68677E-03     26.0788E-03     340.535E-03    -169.600E-03    -170.935E-03    -169.871E-03     340.501E-03    -170.629E-03     8.04372E-03     340.862E-03     49.9182E+06    -88.2970E+06    -95.7192E+06    -141.262E+06    -95.7564E+06    -141.136E+06    -88.3861E+06     215.793E+03
             885     26.0726E-03     838.219E-06     26.0591E-03     341.982E-03    -170.232E-03    -171.750E-03    -171.150E-03     341.960E-03    -170.809E-03     6.18865E-03     342.097E-03     74.8477E+06    -90.7502E+06    -99.5893E+06    -169.551E+06    -95.8107E+06    -169.455E+06    -94.6255E+06    -590.950E+03
             886     29.3456E-03     14.3913E-03     25.5745E-03     338.958E-03    -167.595E-03    -171.363E-03    -167.333E-03     335.174E-03    -167.841E-03     87.4501E-03     364.530E-03     132.960E+06     135.793E+06     44.0662E+06    -16.5639E+06    -14.4194E+06     41.9217E+06     135.793E+06    -1.69096E+06
             887     28.8332E-03     13.5494E-03     25.4512E-03     338.279E-03    -167.644E-03    -170.635E-03    -167.588E-03     335.232E-03    -167.644E-03     77.5721E-03     363.495E-03     94.9273E+06     84.8068E+06     21.4208E+06    -24.1872E+06    -20.1775E+06     17.4110E+06     84.8068E+06     1.42398E+06
             888     28.3453E-03     12.6999E-03     25.3411E-03     335.671E-03    -166.618E-03    -169.054E-03    -166.056E-03     333.596E-03    -167.540E-03     64.2929E-03     355.044E-03     63.5299E+06     58.9788E+06     10.5800E+06    -12.4651E+06    -8.52183E+06     6.63667E+06     58.9788E+06     3.15314E+06
             889     27.9019E-03     11.8507E-03     25.2601E-03     335.966E-03    -166.583E-03    -169.382E-03    -166.540E-03     334.046E-03    -167.506E-03     61.8675E-03     352.992E-03     55.7759E+06     33.3165E+06    -324.392E+03    -29.0168E+06    -15.4073E+06    -13.9339E+06     33.3165E+06     1.43928E+06
             890     27.4811E-03     11.0043E-03     25.1817E-03     335.968E-03    -166.887E-03    -169.080E-03    -166.719E-03     334.247E-03    -167.528E-03     58.7838E-03     350.324E-03     57.0403E+06     18.9195E+06    -15.3631E+06    -44.9779E+06    -32.6230E+06    -27.7180E+06     18.9195E+06     2.68091E+06
             891     27.0784E-03     10.1542E-03     25.1024E-03     334.495E-03    -166.178E-03    -168.317E-03    -165.469E-03     333.133E-03    -167.664E-03     51.9210E-03     346.293E-03     55.5859E+06     23.4011E+06    -21.6775E+06    -38.6126E+06    -37.0664E+06    -23.2237E+06     23.4011E+06     1.88298E+06
             892     26.7027E-03     9.30357E-03     25.0295E-03     334.745E-03    -166.913E-03    -167.831E-03    -165.968E-03     333.799E-03    -167.831E-03     43.3373E-03     344.797E-03     58.5271E+06     22.8472E+06    -22.1172E+06    -43.3154E+06    -41.8478E+06    -23.5847E+06     22.8472E+06     248.066E+03
             893     26.3608E-03     8.46005E-03     24.9664E-03     335.553E-03    -167.588E-03    -167.965E-03    -166.861E-03     334.811E-03    -167.950E-03     38.5772E-03     344.054E-03     61.0399E+06     20.4748E+06    -22.5348E+06    -49.2668E+06    -46.8961E+06    -24.9055E+06     20.4748E+06     235.124E+03
             894     26.0458E-03     7.61178E-03     24.9087E-03     334.102E-03    -165.983E-03    -168.120E-03    -165.374E-03     333.479E-03    -168.104E-03     35.2539E-03     341.326E-03     56.5568E+06     10.8260E+06    -26.8714E+06    -54.1895E+06    -51.9618E+06    -29.0991E+06     10.8260E+06     110.496E+03
             895     25.7626E-03     6.76280E-03     24.8591E-03     333.065E-03    -164.612E-03    -168.453E-03    -164.163E-03     332.616E-03    -168.453E-03     29.5596E-03     338.905E-03     49.2948E+06    -6.56022E+06    -39.7648E+06    -63.1855E+06    -61.9834E+06    -40.9670E+06    -6.56022E+06     2.72270E+06
             896     25.5083E-03     5.91560E-03     24.8129E-03     334.365E-03    -165.445E-03    -168.920E-03    -165.168E-03     334.088E-03    -168.920E-03     23.2155E-03     338.830E-03     42.2597E+06    -21.2082E+06    -49.8692E+06    -69.7275E+06    -68.4967E+06    -51.1000E+06    -21.2082E+06     1.33456E+06
             897     25.2904E-03     5.06696E-03     24.7776E-03     336.438E-03    -167.122E-03    -169.317E-03    -166.941E-03     336.258E-03    -169.317E-03     18.8923E-03     339.835E-03     33.9241E+06    -34.6199E+06    -61.0599E+06    -72.5942E+06    -70.8843E+06    -62.7698E+06    -34.6199E+06    -1.81652E+06
             898     25.1016E-03     4.21959E-03     24.7444E-03     338.675E-03    -168.789E-03    -169.886E-03    -169.040E-03     338.559E-03    -169.518E-03     15.2736E-03     341.075E-03     34.7061E+06    -46.6302E+06    -74.3673E+06     -85.353E+06    -77.3936E+06    -82.3267E+06    -46.6302E+06     75.5659E+03
             899     24.9494E-03     3.37848E-03     24.7196E-03     340.049E-03    -169.358E-03    -170.690E-03    -170.610E-03     339.968E-03    -169.358E-03     12.8178E-03     341.538E-03     37.8470E+06    -60.6330E+06    -82.8359E+06    -103.575E+06    -84.2222E+06    -102.188E+06    -60.6330E+06     1.51373E+06
             900     24.8254E-03     2.53386E-03     24.6958E-03     339.813E-03    -168.799E-03    -171.013E-03    -170.953E-03     339.752E-03    -168.799E-03     11.0939E-03     340.616E-03     44.5340E+06    -75.2895E+06    -87.9094E+06    -124.132E+06    -88.4646E+06    -123.577E+06    -75.2895E+06     1.93432E+06
             901     24.7361E-03     1.69226E-03     24.6781E-03     338.153E-03    -167.848E-03    -170.305E-03    -170.266E-03     338.113E-03    -167.848E-03     8.57003E-03     338.461E-03     49.9862E+06    -86.1555E+06    -94.0321E+06    -139.588E+06    -94.2240E+06    -139.396E+06    -86.1555E+06    -279.098E+03
             902     24.6714E-03     851.255E-06     24.6567E-03     334.811E-03    -166.674E-03    -168.137E-03    -168.116E-03     334.790E-03    -166.674E-03     5.76591E-03     334.895E-03     71.7164E+06    -94.0299E+06    -102.384E+06    -169.525E+06    -100.875E+06    -169.402E+06    -95.6622E+06    -2.50446E+06
             903     28.1424E-03     14.3952E-03     24.1820E-03     340.319E-03    -167.786E-03    -172.533E-03    -168.848E-03     336.634E-03    -167.786E-03     86.0828E-03     366.862E-03     131.108E+06     140.550E+06     49.3438E+06    -9.48418E+06    -7.95582E+06     47.8154E+06     140.550E+06    -1.36268E+06
             904     27.5954E-03     13.5479E-03     24.0408E-03     337.991E-03    -167.371E-03    -170.620E-03    -167.160E-03     334.673E-03    -167.513E-03     80.6847E-03     363.822E-03     84.4654E+06     79.5036E+06     21.8653E+06    -17.2551E+06    -15.3246E+06     19.9349E+06     79.5036E+06    -5.60779E+06
             905     27.1203E-03     12.6997E-03     23.9631E-03     334.095E-03    -166.420E-03    -167.676E-03    -164.351E-03     331.835E-03    -167.484E-03     67.0830E-03     353.506E-03     59.9563E+06     44.0264E+06    -3.82011E+06    -23.1064E+06    -21.0115E+06    -5.91502E+06     44.0264E+06     412.138E+03
             906     26.6386E-03     11.8439E-03     23.8607E-03     335.383E-03    -166.685E-03    -168.698E-03    -165.795E-03     333.403E-03    -167.607E-03     62.5665E-03     352.201E-03     61.7542E+06     33.9080E+06    -10.9487E+06    -34.3188E+06    -25.5794E+06    -19.6882E+06     33.9080E+06     8.76791E+06
             907     26.2025E-03     10.9978E-03     23.7827E-03     337.746E-03    -167.605E-03    -170.141E-03    -168.657E-03     336.262E-03    -167.605E-03     54.3958E-03     352.406E-03     61.9669E+06     33.0653E+06    -10.4338E+06    -35.9615E+06    -26.9295E+06    -19.4658E+06     33.0653E+06     9.66648E+06
             908     25.7884E-03     10.1558E-03     23.7045E-03     336.557E-03    -167.442E-03    -169.116E-03    -167.835E-03     335.356E-03    -167.520E-03     48.9345E-03     348.865E-03     57.1919E+06     31.5573E+06    -15.0813E+06    -32.1320E+06    -29.8770E+06    -17.3362E+06     31.5573E+06     2.14526E+06
             909     25.4039E-03     9.31154E-03     23.6359E-03     334.663E-03    -167.042E-03    -167.621E-03    -166.122E-03     333.641E-03    -167.518E-03     45.1670E-03     344.875E-03     53.5276E+06     20.6218E+06    -21.6306E+06    -39.3313E+06    -38.0434E+06    -22.9184E+06     20.6218E+06     1.14432E+06
             910     25.0402E-03     8.46097E-03     23.5674E-03     334.255E-03    -166.624E-03    -167.631E-03    -165.779E-03     333.409E-03    -167.631E-03     40.9223E-03     342.965E-03     51.7530E+06     8.62125E+06    -27.3943E+06    -50.6163E+06    -48.6381E+06    -29.3725E+06     8.62125E+06    -736.632E+03
             911     24.7180E-03     7.61418E-03     23.5161E-03     334.239E-03    -166.396E-03    -167.843E-03    -165.750E-03     333.593E-03    -167.843E-03     35.8862E-03     341.536E-03     56.9188E+06     7.16684E+06    -31.9811E+06    -58.0894E+06    -56.7875E+06    -33.2829E+06     7.16684E+06    -1.85013E+06
             912     24.4190E-03     6.76605E-03     23.4629E-03     334.194E-03    -166.115E-03    -168.080E-03    -165.622E-03     333.702E-03    -168.080E-03     31.2196E-03     339.951E-03     54.7528E+06     847.023E+03    -36.4881E+06    -61.9620E+06    -60.7187E+06    -37.7314E+06     847.023E+03     2.00259E+06
             913     24.1541E-03     5.91690E-03     23.4182E-03     334.739E-03    -166.442E-03    -168.297E-03    -166.109E-03     334.406E-03    -168.297E-03     25.6419E-03     339.241E-03     43.2573E+06    -18.6358E+06    -46.5318E+06    -68.4348E+06    -66.3223E+06    -48.6444E+06    -18.6358E+06     1.91840E+06
             914     23.9213E-03     5.07075E-03     23.3776E-03     336.081E-03    -167.484E-03    -168.597E-03    -167.393E-03     335.872E-03    -168.479E-03     20.3268E-03     339.428E-03     37.1661E+06    -33.6469E+06    -59.7960E+06    -75.8595E+06    -73.3679E+06    -62.2876E+06    -33.6469E+06     598.376E+03
             915     23.7230E-03     4.22679E-03     23.3435E-03     337.169E-03    -168.262E-03    -168.907E-03    -168.514E-03     337.042E-03    -168.528E-03     15.9069E-03     339.466E-03     37.8836E+06    -45.4753E+06    -74.3298E+06    -88.1323E+06    -79.8013E+06    -82.6608E+06    -45.4753E+06    -2.28668E+06
             916     23.5580E-03     3.37980E-03     23.3143E-03     337.953E-03    -168.324E-03    -169.630E-03    -169.548E-03     337.871E-03    -168.324E-03     12.8202E-03     339.421E-03     39.8301E+06    -60.0660E+06    -85.5204E+06    -105.497E+06    -85.8841E+06    -105.133E+06    -60.0660E+06    -2.03605E+06
             917     23.4316E-03     2.53779E-03     23.2937E-03     337.878E-03    -167.738E-03    -170.139E-03    -170.082E-03     337.820E-03    -167.738E-03     10.7670E-03     338.717E-03     45.6025E+06    -73.0607E+06    -90.3067E+06    -124.321E+06    -90.5360E+06    -124.092E+06    -73.0607E+06    -296.512E+03
             918     23.3344E-03     1.69425E-03     23.2728E-03     335.931E-03    -166.653E-03    -169.278E-03    -169.136E-03     335.885E-03    -166.748E-03     9.63967E-03     336.280E-03     49.6861E+06    -83.6639E+06    -92.1586E+06    -136.833E+06    -92.3643E+06    -136.628E+06    -83.6639E+06     207.989E+03
             919     23.2821E-03     847.544E-06     23.2666E-03     332.635E-03    -165.452E-03    -167.183E-03    -167.058E-03     332.606E-03    -165.547E-03     7.33338E-03     332.741E-03     77.1074E+06    -93.5364E+06    -97.8209E+06    -172.640E+06    -96.2991E+06    -172.530E+06    -95.1688E+06    -1.12862E+06
             920     26.9500E-03     14.3969E-03     22.7823E-03     337.341E-03    -167.569E-03    -169.772E-03    -166.071E-03     333.741E-03    -167.671E-03     84.5733E-03     363.371E-03     125.730E+06     140.631E+06     51.9256E+06    -3.13601E+06    -2.34708E+06     51.1367E+06     140.631E+06     908.667E+03
             921     26.3932E-03     13.5455E-03     22.6522E-03     335.940E-03    -167.286E-03    -168.654E-03    -165.186E-03     332.716E-03    -167.530E-03     79.0762E-03     361.076E-03     77.3790E+06     78.9226E+06     27.4936E+06    -9.91100E+06    -7.23577E+06     24.8184E+06     78.9226E+06     5.31631E+06
             922     25.8902E-03     12.6950E-03     22.5642E-03     336.794E-03    -167.311E-03    -169.483E-03    -167.300E-03     334.753E-03    -167.453E-03     64.0851E-03     356.607E-03     58.8807E+06     32.5503E+06    -11.3572E+06    -33.8552E+06    -30.2936E+06    -14.9188E+06     32.5503E+06     3.23196E+06
             923     25.4063E-03     11.8529E-03     22.4720E-03     337.254E-03    -167.409E-03    -169.845E-03    -168.095E-03     335.504E-03    -167.409E-03     59.2141E-03     354.605E-03     60.0282E+06     30.2073E+06    -21.5802E+06    -35.5189E+06     -34.152E+06    -22.9471E+06     30.2073E+06     188.325E+03
             924     24.9375E-03     11.0063E-03     22.3773E-03     335.718E-03    -166.848E-03    -168.870E-03    -166.948E-03     334.348E-03    -167.400E-03     52.2279E-03     350.360E-03     65.1071E+06     40.3123E+06    -12.0250E+06    -32.0449E+06    -28.0652E+06    -16.0048E+06     40.3123E+06    -1.91935E+06
             925     24.5130E-03     10.1594E-03     22.3085E-03     335.434E-03    -166.837E-03    -168.597E-03    -166.829E-03     334.218E-03    -167.389E-03     49.2785E-03     347.889E-03     64.6820E+06     34.1229E+06    -12.7848E+06    -39.0263E+06    -31.9304E+06    -19.8806E+06     34.1229E+06     2.86003E+06
             926     24.1100E-03     9.30906E-03     22.2404E-03     334.736E-03    -166.958E-03    -167.778E-03    -166.232E-03     333.643E-03    -167.410E-03     46.6909E-03     344.931E-03     58.1723E+06     24.5145E+06    -16.8275E+06    -41.4351E+06    -36.2606E+06    -22.0021E+06     24.5145E+06     8.71051E+06
             927     23.7354E-03     8.46205E-03     22.1758E-03     334.014E-03    -166.507E-03    -167.507E-03    -165.629E-03     333.136E-03    -167.507E-03     41.7500E-03     342.626E-03     52.1207E+06     11.4852E+06    -24.4216E+06    -48.2935E+06    -45.5930E+06    -27.1221E+06     11.4852E+06     4.96576E+06
             928     23.3910E-03     7.61310E-03     22.1174E-03     334.817E-03    -166.969E-03    -167.848E-03    -166.519E-03     334.151E-03    -167.632E-03     36.3809E-03     342.113E-03     49.9077E+06     1.85238E+06    -32.1256E+06    -55.3877E+06    -53.8811E+06    -33.6322E+06     1.85238E+06    -541.809E+03
             929     23.0818E-03     6.76757E-03     22.0674E-03     335.620E-03    -167.205E-03    -168.414E-03    -167.437E-03     335.140E-03    -167.703E-03     30.9253E-03     341.469E-03     51.9957E+06     269.545E+03    -35.4267E+06    -59.2867E+06    -58.0592E+06    -36.6542E+06     269.545E+03    -2.76020E+06
             930     22.8034E-03     5.92213E-03     22.0210E-03     335.650E-03    -167.219E-03    -168.430E-03    -167.637E-03     335.324E-03    -167.687E-03     25.4369E-03     340.169E-03     51.7350E+06    -5.62042E+06    -40.8722E+06    -64.9086E+06    -63.4512E+06    -42.3296E+06    -5.62042E+06    -304.100E+03
             931     22.5564E-03     5.07629E-03     21.9778E-03     335.454E-03    -167.495E-03    -167.959E-03    -167.649E-03     335.243E-03    -167.594E-03     20.5030E-03     338.739E-03     43.6280E+06    -25.1461E+06    -56.5787E+06    -74.3940E+06    -72.0564E+06    -58.9163E+06    -25.1461E+06     23.0021E+03
             932     22.3480E-03     4.22978E-03     21.9440E-03     335.478E-03    -167.451E-03    -168.027E-03    -167.870E-03     335.335E-03    -167.465E-03     16.9139E-03     337.720E-03     38.0704E+06    -46.2355E+06    -75.9952E+06    -88.7353E+06    -80.5618E+06    -84.1687E+06    -46.2355E+06    -2.17456E+06
             933     22.1756E-03     3.38583E-03     21.9156E-03     335.498E-03    -167.246E-03    -168.252E-03    -168.138E-03     335.403E-03    -167.265E-03     13.6486E-03     336.918E-03     40.0128E+06    -60.1473E+06    -84.1066E+06    -105.612E+06    -84.2043E+06    -105.514E+06    -60.1473E+06    -1.24476E+06
             934     22.0375E-03     2.53961E-03     21.8906E-03     334.707E-03    -166.775E-03    -167.932E-03    -167.638E-03     334.648E-03    -167.010E-03     10.8203E-03     335.532E-03     45.7948E+06    -74.1504E+06    -88.3695E+06    -125.027E+06    -88.5665E+06    -124.830E+06    -74.1504E+06    -2.49034E+06
             935     21.9457E-03     1.69271E-03     21.8804E-03     333.826E-03    -166.526E-03    -167.300E-03    -166.868E-03     333.790E-03    -166.922E-03     8.29393E-03     334.185E-03     51.7102E+06     -84.675E+06    -92.6295E+06    -139.687E+06    -92.8273E+06    -139.489E+06     -84.675E+06    -2.26183E+06
             936     21.8853E-03     845.155E-06     21.8690E-03     334.152E-03    -166.513E-03    -167.639E-03    -166.868E-03     334.137E-03    -167.269E-03     4.93710E-03     334.246E-03     82.7366E+06    -91.1686E+06    -95.2496E+06    -175.767E+06    -94.6184E+06    -175.691E+06    -91.8763E+06     1.30091E+06
             937     25.7850E-03     14.3984E-03     21.3904E-03     338.440E-03    -167.579E-03    -170.861E-03    -167.081E-03     334.761E-03    -167.680E-03     86.1438E-03     364.481E-03     128.139E+06     134.094E+06     43.2962E+06    -12.4509E+06    -11.7514E+06     42.5967E+06     134.094E+06     -880.96E+03
             938     25.2131E-03     13.5458E-03     21.2653E-03     337.673E-03    -167.374E-03    -170.299E-03    -167.163E-03     334.638E-03    -167.475E-03     77.3776E-03     362.736E-03     86.5540E+06     78.6646E+06     20.3850E+06    -20.6852E+06    -17.8718E+06     17.5717E+06     78.6646E+06     7.72396E+06
             939     24.6789E-03     12.6998E-03     21.1604E-03     337.623E-03    -167.303E-03    -170.319E-03    -168.286E-03     335.589E-03    -167.303E-03     64.0965E-03     357.214E-03     62.1239E+06     46.1362E+06     211.518E+03    -23.9067E+06    -20.9672E+06    -2.72797E+06     46.1362E+06     4.12701E+06
             940     24.1760E-03     11.8567E-03     21.0689E-03     336.778E-03    -167.177E-03    -169.601E-03    -167.744E-03     334.921E-03    -167.177E-03     61.1582E-03     354.292E-03     53.1988E+06     33.1428E+06    -14.1241E+06    -24.2806E+06    -23.5496E+06    -14.8551E+06     33.1428E+06    -2.23925E+06
             941     23.7014E-03     11.0078E-03     20.9901E-03     334.417E-03    -166.626E-03    -167.791E-03    -165.623E-03     332.800E-03    -167.178E-03     56.7869E-03     348.876E-03     56.0944E+06     25.7542E+06    -16.0939E+06    -36.3720E+06    -29.0011E+06    -23.4648E+06     25.7542E+06    -4.57744E+03
             942     23.2480E-03     10.1546E-03     20.9130E-03     334.656E-03    -166.725E-03    -167.931E-03    -166.091E-03     333.368E-03    -167.277E-03     50.6176E-03     347.045E-03     64.7745E+06     21.5585E+06    -18.2987E+06    -52.9945E+06    -40.9181E+06    -30.3751E+06     21.5585E+06     1.70328E+06
             943     22.8274E-03     9.31119E-03     20.8420E-03     335.387E-03    -167.263E-03    -168.124E-03    -167.041E-03     334.397E-03    -167.356E-03     44.4675E-03     345.916E-03     67.1313E+06     31.2876E+06    -14.4182E+06    -45.6042E+06    -39.1651E+06    -20.8573E+06     31.2876E+06     3.04422E+06
             944     22.4402E-03     8.46333E-03     20.7830E-03     335.386E-03    -167.015E-03    -168.371E-03    -167.268E-03     334.605E-03    -167.338E-03     39.5294E-03     343.997E-03     61.4352E+06     29.3713E+06    -13.5084E+06    -40.9119E+06    -37.2668E+06    -17.1535E+06     29.3713E+06     6.89778E+06
             945     22.0756E-03     7.61677E-03     20.7199E-03     335.466E-03    -167.014E-03    -168.452E-03    -167.656E-03     334.899E-03    -167.243E-03     33.4879E-03     342.548E-03     54.1801E+06     12.8114E+06    -23.4501E+06    -49.4097E+06    -46.3436E+06    -26.5163E+06     12.8114E+06     4.20213E+06
             946     21.7492E-03     6.77066E-03     20.6684E-03     335.593E-03    -167.102E-03    -168.491E-03    -168.092E-03     335.194E-03    -167.102E-03     28.2601E-03     341.398E-03     50.6161E+06     56.5291E+03    -35.3744E+06    -57.8343E+06    -56.8644E+06    -36.3443E+06     56.5291E+03    -1.60463E+06
             947     21.4552E-03     5.92664E-03     20.6204E-03     335.311E-03    -166.906E-03    -168.404E-03    -168.096E-03     335.002E-03    -166.906E-03     24.8023E-03     339.745E-03     49.6840E+06    -9.82821E+06    -45.9859E+06    -66.4758E+06    -63.8645E+06    -48.5972E+06    -9.82821E+06    -3.72266E+06
             948     21.2004E-03     5.08133E-03     20.5824E-03     334.442E-03    -166.653E-03    -167.789E-03    -167.564E-03     334.230E-03    -166.667E-03     20.5101E-03     337.620E-03     42.1011E+06    -25.3163E+06     -59.035E+06    -72.1387E+06    -68.8868E+06    -62.2869E+06    -25.3163E+06    -2.16442E+06
             949     20.9791E-03     4.23468E-03     20.5473E-03     333.627E-03    -166.329E-03    -167.298E-03    -167.030E-03     333.483E-03    -166.453E-03     16.8798E-03     335.822E-03     36.2370E+06    -43.4871E+06    -72.8397E+06    -83.6448E+06    -75.3055E+06     -81.179E+06    -43.4871E+06     492.865E+03
             950     20.7945E-03     3.38790E-03     20.5166E-03     332.790E-03    -166.072E-03    -166.718E-03    -166.352E-03     332.696E-03    -166.345E-03     13.5532E-03     334.213E-03     41.0363E+06    -58.3978E+06    -81.6249E+06    -105.267E+06    -81.9444E+06    -104.948E+06    -58.3978E+06    -1.76822E+06
             951     20.6565E-03     2.54048E-03     20.4997E-03     332.429E-03    -165.979E-03    -166.450E-03    -166.021E-03     332.378E-03    -166.356E-03     9.88254E-03     333.248E-03     47.8280E+06    -72.1070E+06    -86.0240E+06    -124.964E+06    -86.3855E+06    -124.603E+06    -72.1070E+06    -2.37381E+06
             952     20.5518E-03     1.69263E-03     20.4819E-03     332.832E-03    -166.105E-03    -166.727E-03    -166.406E-03     332.811E-03    -166.405E-03     5.86084E-03     333.169E-03     54.3348E+06    -85.8792E+06    -92.6084E+06    -143.128E+06    -92.7599E+06    -142.977E+06    -85.8792E+06    -1.56363E+06
             953     20.4935E-03     846.883E-06     20.4760E-03     333.098E-03    -165.954E-03    -167.144E-03    -166.479E-03     333.093E-03    -166.614E-03     2.84910E-03     333.159E-03     85.3069E+06    -91.0520E+06    -96.3368E+06    -178.777E+06    -95.7688E+06    -178.637E+06    -91.7597E+06    -1.06788E+06
             954     24.6278E-03     14.3898E-03     19.9866E-03     341.182E-03    -167.814E-03    -173.368E-03    -169.654E-03     337.468E-03    -167.814E-03     87.0568E-03     367.476E-03     133.715E+06     135.695E+06     41.1891E+06    -17.2525E+06    -16.3047E+06     40.2413E+06     135.695E+06    -147.328E+03
             955     24.0490E-03     13.5529E-03     19.8664E-03     341.258E-03    -167.428E-03    -173.830E-03    -170.703E-03     338.131E-03    -167.428E-03     79.3241E-03     366.970E-03     94.2718E+06     77.6589E+06     12.9836E+06    -30.5001E+06    -28.6036E+06     11.0871E+06     77.6589E+06    -2.87810E+06
             956     23.4972E-03     12.7054E-03     19.7659E-03     336.501E-03    -166.875E-03    -169.626E-03    -167.090E-03     334.274E-03    -167.184E-03     66.9360E-03     355.724E-03     61.6055E+06     56.6998E+06     12.0993E+06    -13.2592E+06    -6.59769E+06     5.43779E+06     56.6998E+06     1.25070E+06
             957     22.9680E-03     11.8521E-03     19.6738E-03     335.094E-03    -166.808E-03    -168.285E-03    -166.087E-03     333.205E-03    -167.118E-03     61.3141E-03     352.112E-03     48.1531E+06     33.8431E+06    -2.87480E+06    -19.4394E+06    -10.3643E+06    -11.9499E+06     33.8431E+06     5.00544E+06
             958     22.4750E-03     11.0038E-03     19.5969E-03     336.240E-03    -167.089E-03    -169.151E-03    -167.682E-03     334.771E-03    -167.089E-03     54.2283E-03     350.790E-03     53.4470E+06     18.0116E+06    -20.9267E+06    -41.0515E+06    -32.7225E+06    -29.2556E+06     18.0116E+06     7.39840E+06
             959     22.0024E-03     10.1622E-03     19.5150E-03     335.863E-03    -167.055E-03    -168.808E-03    -167.676E-03     334.731E-03    -167.055E-03     47.5657E-03     348.424E-03     59.4131E+06     27.5485E+06    -15.6159E+06    -39.1573E+06    -32.7947E+06    -21.9785E+06     27.5485E+06     576.045E+03
             960     21.5627E-03     9.31163E-03     19.4485E-03     335.896E-03    -166.954E-03    -168.942E-03    -168.087E-03     335.042E-03    -166.954E-03     41.3623E-03     346.671E-03     60.3455E+06     26.5519E+06    -18.7339E+06    -41.7776E+06    -38.9370E+06    -21.5745E+06     26.5519E+06    -6.47404E+06
             961     21.1501E-03     8.46739E-03     19.3811E-03     336.473E-03    -166.776E-03    -169.698E-03    -169.058E-03     335.834E-03    -166.776E-03     35.6908E-03     345.247E-03      65.257E+06     28.3342E+06    -19.1979E+06    -45.9579E+06    -43.0456E+06    -22.1103E+06     28.3342E+06     1.64315E+06
             962     20.7734E-03     7.62429E-03     19.3237E-03     335.440E-03    -166.512E-03    -168.928E-03    -168.469E-03     334.980E-03    -166.512E-03     30.3023E-03     342.370E-03     64.3300E+06     26.0274E+06    -20.2964E+06    -47.3298E+06    -45.1427E+06    -22.4835E+06     26.0274E+06     5.07024E+06
             963     20.4282E-03     6.77883E-03     19.2707E-03     334.208E-03    -166.202E-03    -168.006E-03    -167.665E-03     333.867E-03    -166.202E-03     26.0906E-03     339.656E-03     52.2414E+06     7.11304E+06    -29.9961E+06    -52.5485E+06    -51.4583E+06    -31.0863E+06     7.11304E+06     1.95238E+06
             964     20.1192E-03     5.93107E-03     19.2251E-03     333.511E-03    -165.892E-03    -167.618E-03    -167.377E-03     333.269E-03    -165.892E-03     21.7541E-03     337.735E-03     42.5680E+06    -17.3849E+06    -46.9042E+06    -66.1289E+06    -62.6499E+06    -50.3832E+06    -17.3849E+06     267.259E+03
             965     19.8475E-03     5.08472E-03     19.1851E-03     332.767E-03    -165.610E-03    -167.156E-03    -166.988E-03     332.598E-03    -165.610E-03     18.1185E-03     335.891E-03     42.3100E+06    -31.6308E+06    -62.3947E+06    -79.6521E+06    -72.9657E+06    -69.0811E+06    -31.6308E+06    -3.73362E+06
             966     19.6160E-03     4.23995E-03     19.1523E-03     331.572E-03    -165.255E-03    -166.317E-03    -166.090E-03     331.456E-03    -165.366E-03     15.0093E-03     333.748E-03     39.6857E+06    -40.7233E+06    -71.2087E+06    -85.1827E+06    -75.8993E+06    -80.4920E+06    -40.7233E+06    -2.51350E+06
             967     19.4254E-03     3.39108E-03     19.1271E-03     330.591E-03    -164.952E-03    -165.639E-03    -165.319E-03     330.526E-03    -165.207E-03     11.0898E-03     331.977E-03     39.7425E+06    -58.0949E+06    -82.1562E+06    -102.965E+06    -82.4425E+06    -102.678E+06    -58.0949E+06    -1.38442E+06
             968     19.2723E-03     2.54293E-03     19.1038E-03     330.484E-03    -164.969E-03    -165.515E-03    -165.342E-03     330.454E-03    -165.112E-03     7.40044E-03     331.262E-03     50.7218E+06    -73.0177E+06    -89.4962E+06    -129.700E+06    -89.7458E+06    -129.451E+06    -73.0177E+06    -1.37683E+06
             969     19.1658E-03     1.69679E-03     19.0905E-03     330.391E-03    -164.925E-03    -165.466E-03    -165.455E-03     330.380E-03    -164.925E-03     4.35507E-03     330.706E-03     55.4041E+06    -83.3586E+06    -91.9644E+06    -142.359E+06    -92.0453E+06    -142.278E+06    -83.3586E+06     603.279E+03
             970     19.0988E-03     848.700E-06     19.0799E-03     329.829E-03    -164.566E-03    -165.263E-03    -165.260E-03     329.826E-03    -164.566E-03     2.55764E-03     329.883E-03     83.9880E+06    -92.7964E+06    -98.6646E+06    -179.511E+06    -96.8473E+06    -179.345E+06    -94.7807E+06    -1.88932E+06
             971     23.5106E-03     14.3945E-03     18.5890E-03     339.959E-03    -167.795E-03    -172.164E-03    -168.600E-03     336.395E-03    -167.795E-03     84.9677E-03     365.958E-03     128.721E+06     140.183E+06     49.9471E+06    -7.04963E+06    -5.75701E+06     48.6545E+06     140.183E+06     2.88992E+06
             972     22.8927E-03     13.5448E-03     18.4557E-03     339.456E-03    -167.467E-03    -171.989E-03    -168.781E-03     336.248E-03    -167.467E-03     80.1156E-03     365.358E-03     80.5779E+06     76.4094E+06     21.4341E+06    -15.8799E+06    -13.1236E+06     18.6778E+06     76.4094E+06    -4.93315E+06
             973     22.3379E-03     12.7023E-03     18.3748E-03     338.593E-03    -166.926E-03    -171.668E-03    -169.088E-03     336.323E-03    -167.235E-03     67.8595E-03     358.434E-03     60.9496E+06     41.4723E+06    -4.60201E+06    -27.2676E+06    -20.2347E+06    -11.6350E+06     41.4723E+06    -1.08331E+06
             974     21.7896E-03     11.8546E-03     18.2827E-03     338.349E-03    -166.742E-03    -171.606E-03    -169.515E-03     336.567E-03    -167.052E-03     59.8524E-03     355.534E-03     60.7780E+06     36.3135E+06    -10.1860E+06    -31.5121E+06    -22.2952E+06    -19.4029E+06     36.3135E+06     8.11922E+06
             975     21.2649E-03     11.0113E-03     18.1919E-03     337.773E-03    -166.804E-03    -170.969E-03    -169.727E-03     336.532E-03    -166.804E-03     50.0220E-03     352.501E-03     57.4487E+06     32.7637E+06    -14.5668E+06    -30.0428E+06    -25.0698E+06    -19.5397E+06     32.7637E+06     4.01979E+06
             976     20.7773E-03     10.1634E-03     18.1218E-03     337.236E-03    -166.510E-03    -170.726E-03    -169.794E-03     336.304E-03    -166.510E-03     43.2769E-03     349.934E-03     54.0574E+06     32.3924E+06    -14.7362E+06    -26.5103E+06    -25.6584E+06    -15.5881E+06     32.3924E+06    -813.298E+03
             977     20.3136E-03     9.32108E-03     18.0488E-03     336.662E-03    -166.160E-03    -170.502E-03    -169.808E-03     335.968E-03    -166.160E-03     37.2606E-03     347.290E-03     56.8175E+06     26.4505E+06    -17.9692E+06    -37.4254E+06    -35.5674E+06    -19.8271E+06     26.4505E+06     438.873E+03
             978     19.8803E-03     8.47744E-03     17.9822E-03     335.320E-03    -165.786E-03    -169.535E-03    -169.040E-03     334.826E-03    -165.786E-03     31.4540E-03     343.968E-03     62.1844E+06     20.0922E+06    -22.3617E+06    -50.8165E+06    -46.0653E+06    -27.1129E+06     20.0922E+06    -2.70275E+06
             979     19.4837E-03     7.63111E-03     17.9271E-03     334.154E-03    -165.405E-03    -168.749E-03    -168.375E-03     333.779E-03    -165.405E-03     27.3077E-03     340.956E-03     60.5962E+06     16.4002E+06    -25.1874E+06    -52.6292E+06    -49.6536E+06    -28.1630E+06     16.4002E+06    -3.57420E+06
             980     19.1203E-03     6.78500E-03     17.8759E-03     333.224E-03    -164.983E-03    -168.241E-03    -167.977E-03     332.960E-03    -164.983E-03     22.5307E-03     338.495E-03     56.2000E+06     9.05918E+06    -31.1301E+06    -55.0783E+06    -54.2117E+06    -31.9967E+06     9.05918E+06     2.10461E+06
             981     18.7942E-03     5.94053E-03     17.8306E-03     331.510E-03    -164.528E-03    -166.982E-03    -166.828E-03     331.356E-03    -164.528E-03     17.2518E-03     335.558E-03     48.3367E+06    -5.75866E+06    -39.2956E+06    -61.1202E+06    -60.0826E+06    -40.3332E+06    -5.75866E+06     3.68849E+06
             982     18.5076E-03     5.09392E-03     17.7928E-03     329.857E-03    -164.120E-03    -165.737E-03    -165.640E-03     329.760E-03    -164.120E-03     13.6030E-03     332.822E-03     41.2558E+06    -28.0483E+06    -56.2112E+06    -75.3766E+06    -68.6505E+06    -62.9373E+06    -28.0483E+06    -283.734E+03
             983     18.2617E-03     4.24380E-03     17.7617E-03     328.919E-03    -163.776E-03    -165.143E-03    -165.083E-03     328.858E-03    -163.776E-03     10.4104E-03     330.975E-03     39.1473E+06    -47.1245E+06    -74.7648E+06    -91.5319E+06    -78.7596E+06    -87.5371E+06    -47.1245E+06    -3.09846E+06
             984     18.0579E-03     3.39753E-03     17.7354E-03     328.114E-03    -163.419E-03    -164.695E-03    -164.663E-03     328.081E-03    -163.419E-03     7.53907E-03     329.398E-03     37.5097E+06    -61.3446E+06    -83.3975E+06    -103.692E+06    -83.9672E+06    -103.122E+06    -61.3446E+06    -2.31421E+06
             985     17.8988E-03     2.54960E-03     17.7163E-03     326.966E-03    -163.109E-03    -163.856E-03    -163.842E-03     326.951E-03    -163.109E-03     5.09314E-03     327.679E-03     50.5741E+06    -73.5269E+06    -88.6507E+06    -129.756E+06    -88.6941E+06    -129.712E+06    -73.5269E+06    -844.333E+03
             986     17.7814E-03     1.69900E-03     17.7000E-03     326.057E-03    -162.873E-03    -163.184E-03    -163.117E-03     326.051E-03    -162.934E-03     3.15623E-03     326.350E-03     56.3243E+06    -82.5618E+06    -93.8490E+06    -143.643E+06    -94.0213E+06    -143.471E+06    -82.5618E+06    -602.467E+03
             987     17.7154E-03     849.453E-06     17.6951E-03     325.976E-03    -162.758E-03    -163.219E-03    -163.155E-03     325.974E-03    -162.819E-03     1.63976E-03     326.022E-03     83.2179E+06    -90.5861E+06    -99.6146E+06    -177.907E+06    -94.9298E+06    -177.493E+06    -95.6850E+06     1.28440E+06
             988     22.4274E-03     14.3993E-03     17.1945E-03     339.335E-03    -167.718E-03    -171.617E-03    -168.011E-03     335.730E-03    -167.718E-03     85.3531E-03     365.402E-03     125.538E+06     138.025E+06     50.2173E+06    -5.57967E+06    -4.89537E+06     49.5330E+06     138.025E+06    -150.511E+03
             989     21.7911E-03     13.5469E-03     17.0686E-03     338.051E-03    -167.448E-03    -170.603E-03    -167.536E-03     334.983E-03    -167.448E-03     77.6858E-03     363.808E-03     76.8492E+06     77.4263E+06     25.7900E+06    -10.6714E+06    -8.32530E+06     23.4439E+06     77.4263E+06     1.90628E+06
             990     21.1909E-03     12.6948E-03     16.9675E-03     340.251E-03    -167.149E-03    -173.101E-03    -171.144E-03     338.294E-03    -167.149E-03     63.0913E-03     360.738E-03     61.6097E+06     26.4604E+06    -19.9250E+06    -43.0401E+06    -38.9188E+06    -24.0464E+06     26.4604E+06    -1.51694E+06
             991     20.6276E-03     11.8605E-03     16.8767E-03     341.424E-03    -166.785E-03    -174.639E-03    -173.046E-03     339.831E-03    -166.785E-03     57.0375E-03     359.359E-03     65.8937E+06     31.7795E+06    -23.3763E+06    -40.7989E+06    -38.0824E+06    -26.0928E+06     31.7795E+06    -1.09657E+06
             992     20.0872E-03     11.0159E-03     16.7972E-03     339.821E-03    -166.314E-03    -173.507E-03    -172.341E-03     338.655E-03    -166.314E-03     48.6766E-03     354.598E-03     61.8596E+06     48.6226E+06    -5.19739E+06    -18.7663E+06    -16.0598E+06    -7.90388E+06     48.6226E+06     3.05346E+06
             993     19.5716E-03     10.1745E-03     16.7191E-03     338.954E-03    -165.711E-03    -173.244E-03    -172.437E-03     338.147E-03    -165.711E-03     40.4384E-03     351.498E-03     59.5125E+06     32.6990E+06    -14.2884E+06    -33.6310E+06    -29.4308E+06    -18.4885E+06     32.6990E+06     5.60887E+06
             994     19.0862E-03     9.33259E-03     16.6489E-03     336.784E-03    -165.105E-03    -171.680E-03    -171.119E-03     336.224E-03    -165.105E-03     33.6240E-03     347.263E-03     61.4744E+06     30.4655E+06    -12.7033E+06    -39.5763E+06    -34.7509E+06    -17.5287E+06     30.4655E+06     2.94154E+06
             995     18.6336E-03     8.48696E-03     16.5886E-03     334.304E-03    -164.507E-03    -169.797E-03    -169.406E-03     333.914E-03    -164.507E-03     27.7988E-03     342.777E-03     59.4496E+06     22.8932E+06    -13.1678E+06    -45.4504E+06    -38.4648E+06    -20.1534E+06     22.8932E+06    -1.89904E+06
             996     18.2131E-03     7.64151E-03     16.5325E-03     333.078E-03    -163.901E-03    -169.177E-03    -168.926E-03     332.827E-03    -163.901E-03     22.0061E-03     339.779E-03     57.1891E+06     10.8555E+06    -25.3680E+06    -54.6888E+06    -50.4506E+06    -29.6062E+06     10.8555E+06    -1.18173E+06
             997     17.8271E-03     6.79813E-03     16.4800E-03     331.221E-03    -163.264E-03    -167.956E-03    -167.814E-03     331.078E-03    -163.264E-03     16.3861E-03     336.453E-03     55.2217E+06     4.03505E+06    -35.5814E+06    -59.0255E+06    -58.6519E+06    -35.9550E+06     4.03505E+06    -828.654E+03
             998     17.4843E-03     5.95154E-03     16.4402E-03     328.891E-03    -162.608E-03    -166.282E-03    -166.203E-03     328.811E-03    -162.608E-03     12.0304E-03     332.800E-03     47.9000E+06    -9.03225E+06    -42.5993E+06    -63.8673E+06    -63.5004E+06    -42.9662E+06    -9.03225E+06    -614.902E+03
             999     17.1802E-03     5.10280E-03     16.4049E-03     327.029E-03    -161.968E-03    -165.061E-03    -165.018E-03     326.986E-03    -161.968E-03     8.23971E-03     329.821E-03     38.7695E+06    -27.4010E+06    -54.5153E+06    -71.7976E+06    -68.9478E+06    -57.3652E+06    -27.4010E+06     2.78512E+06
            1000     16.9187E-03     4.25648E-03     16.3746E-03     325.249E-03    -161.349E-03    -163.899E-03    -163.883E-03     325.233E-03    -161.349E-03     4.64323E-03     327.136E-03     34.9636E+06    -47.1509E+06    -70.1446E+06    -87.3321E+06    -75.7083E+06    -81.7684E+06    -47.1509E+06     1.75793E+06
            1001     16.7011E-03     3.40558E-03     16.3502E-03     323.395E-03    -160.781E-03    -162.614E-03    -162.606E-03     323.387E-03    -160.781E-03     2.46647E-03     324.575E-03     36.0930E+06    -64.6492E+06    -83.0172E+06    -106.043E+06    -83.6250E+06    -105.435E+06    -64.6492E+06    -1.31381E+06
            1002     16.5305E-03     2.55517E-03     16.3318E-03     321.686E-03    -160.334E-03    -161.352E-03    -161.346E-03     321.680E-03    -160.334E-03     993.575E-06     322.353E-03     46.6452E+06    -76.8815E+06    -89.1081E+06    -128.074E+06    -89.1877E+06    -127.995E+06    -76.8815E+06    -948.176E+03
            1003     16.4100E-03     1.70435E-03     16.3212E-03     320.454E-03    -160.017E-03    -160.437E-03    -160.374E-03     320.451E-03    -160.078E-03     347.978E-06     320.713E-03     53.8231E+06    -86.7993E+06    -93.8384E+06    -143.696E+06    -94.0008E+06    -143.534E+06    -86.7993E+06    -2.20843E+06
            1004     16.3327E-03     851.738E-06     16.3105E-03     320.264E-03    -159.929E-03    -160.335E-03    -160.274E-03     320.264E-03    -159.990E-03     282.803E-06     320.294E-03     87.7790E+06    -88.8391E+06    -96.9241E+06    -180.331E+06    -94.2509E+06    -179.890E+06    -91.9538E+06    -703.756E+03
            1005     21.3683E-03     14.3913E-03     15.7955E-03     340.890E-03    -167.738E-03    -173.152E-03    -169.534E-03     337.272E-03    -167.738E-03     85.8333E-03     367.508E-03     129.570E+06     134.010E+06     42.7240E+06    -14.2248E+06    -13.8994E+06     42.3986E+06     134.010E+06    -2.69190E+06
            1006     20.7170E-03     13.5499E-03     15.6714E-03     342.620E-03    -167.306E-03    -175.313E-03    -172.305E-03     339.611E-03    -167.306E-03     77.6235E-03     369.118E-03     90.7077E+06     79.5877E+06     18.3849E+06    -24.6061E+06    -23.2194E+06     16.9982E+06     79.5877E+06     3.74095E+06
            1007     20.0974E-03     12.7114E-03     15.5668E-03     340.913E-03    -166.780E-03    -174.133E-03    -172.263E-03     339.042E-03    -166.780E-03     61.8590E-03     361.377E-03     61.2392E+06     39.5064E+06    -1.64293E+06    -30.8293E+06    -24.3047E+06    -8.16751E+06     39.5064E+06     4.00647E+06
            1008     19.4953E-03     11.8611E-03     15.4720E-03     341.418E-03    -166.234E-03    -175.184E-03    -173.742E-03     339.976E-03    -166.234E-03     54.1740E-03     359.553E-03     52.5994E+06     24.4138E+06    -12.0090E+06    -35.0334E+06    -25.8917E+06    -21.1506E+06     24.4138E+06    -4.62800E+06
            1009     18.9325E-03     11.0229E-03     15.3926E-03     342.040E-03    -165.598E-03    -176.442E-03    -175.433E-03     341.031E-03    -165.598E-03     45.4319E-03     357.234E-03     62.9022E+06     34.5120E+06    -14.1075E+06    -35.5443E+06    -30.0843E+06    -19.5674E+06     34.5120E+06    -2.63475E+06
            1010     18.3914E-03     10.1839E-03     15.3145E-03     339.936E-03    -164.790E-03    -175.147E-03    -174.445E-03     339.235E-03    -164.790E-03     37.7024E-03     352.758E-03     68.4607E+06     39.8512E+06    -11.2464E+06    -37.5764E+06    -32.5044E+06    -16.3185E+06     39.8512E+06     2.06055E+06
            1011     17.8855E-03     9.34224E-03     15.2517E-03     337.339E-03    -163.880E-03    -173.460E-03    -173.019E-03     336.898E-03    -163.880E-03     29.5754E-03     348.084E-03     63.5991E+06     33.1170E+06    -8.91719E+06    -40.0033E+06    -33.2959E+06    -15.6246E+06     33.1170E+06     105.110E+03
            1012     17.4094E-03     8.50022E-03     15.1932E-03     335.101E-03    -162.926E-03    -172.175E-03    -171.920E-03     334.846E-03    -162.926E-03     22.2986E-03     343.696E-03     61.0317E+06     23.7901E+06    -16.3729E+06    -46.2952E+06    -41.5870E+06    -21.0812E+06     23.7901E+06     2.23313E+06
            1013     16.9636E-03     7.65905E-03     15.1361E-03     331.823E-03    -161.957E-03    -169.867E-03    -169.731E-03     331.688E-03    -161.957E-03     15.9523E-03     338.530E-03     57.5156E+06     17.6516E+06    -21.6234E+06    -48.2170E+06    -46.2080E+06    -23.6324E+06     17.6516E+06     3.99358E+06
            1014     16.5585E-03     6.81281E-03     15.0921E-03     328.526E-03    -160.985E-03    -167.540E-03    -167.479E-03     328.465E-03    -160.985E-03     10.1398E-03     333.705E-03     48.6016E+06     338.031E+03    -33.2233E+06    -55.3679E+06    -54.4280E+06    -34.1633E+06     338.031E+03     1.00913E+06
            1015     16.1917E-03     5.96522E-03     15.0528E-03     326.128E-03    -160.014E-03    -166.114E-03    -166.090E-03     326.104E-03    -160.014E-03     4.90877E-03     329.987E-03     42.1953E+06    -17.0464E+06    -45.4642E+06    -65.5300E+06    -64.7375E+06    -46.2568E+06    -17.0464E+06     823.792E+03
            1016     15.8682E-03     5.11949E-03     15.0197E-03     323.446E-03    -159.008E-03    -164.439E-03    -164.428E-03     323.435E-03    -159.008E-03     600.500E-06     326.211E-03     37.4479E+06    -31.4282E+06    -58.5271E+06    -73.9562E+06    -72.8440E+06    -59.6393E+06    -31.4282E+06     1.44504E+06
            1017     15.5889E-03     4.26892E-03     14.9930E-03     320.106E-03    -158.028E-03    -162.078E-03    -162.066E-03     320.094E-03    -158.028E-03    -2.12498E-03     321.974E-03     33.2081E+06    -47.9229E+06    -72.5044E+06    -85.4256E+06    -79.3026E+06    -78.6275E+06    -47.9229E+06     2.30083E+06
            1018     15.3586E-03     3.41916E-03     14.9732E-03     316.938E-03    -157.204E-03    -159.734E-03    -159.723E-03     316.927E-03    -157.204E-03    -3.44987E-03     318.096E-03     34.8571E+06    -63.7278E+06    -82.1328E+06    -103.360E+06    -84.1042E+06    -101.389E+06    -63.7278E+06     3.13434E+06
            1019     15.1760E-03     2.56556E-03     14.9575E-03     314.600E-03    -156.562E-03    -158.038E-03    -158.029E-03     314.591E-03    -156.562E-03    -3.81540E-03     315.228E-03     40.6355E+06    -80.0577E+06    -91.6014E+06    -124.923E+06    -91.7850E+06    -124.739E+06    -80.0577E+06     659.381E+03
            1020     15.0450E-03     1.71095E-03     14.9474E-03     313.040E-03    -156.072E-03    -156.968E-03    -156.962E-03     313.033E-03    -156.072E-03    -2.95856E-03     313.288E-03     49.2784E+06    -88.4001E+06    -95.6652E+06    -140.705E+06    -95.7507E+06    -140.619E+06    -88.4001E+06    -1.56676E+06
            1021     14.9654E-03     856.086E-06     14.9409E-03     311.921E-03    -155.773E-03    -156.148E-03    -156.133E-03     311.919E-03    -155.786E-03    -962.232E-06     311.953E-03     85.6552E+06    -96.6734E+06    -103.348E+06    -185.396E+06    -102.189E+06    -185.246E+06    -97.9820E+06    -3.03907E+06
            1022     20.3578E-03     14.3943E-03     14.3960E-03     342.674E-03    -167.614E-03    -175.060E-03    -171.687E-03     339.301E-03    -167.614E-03     83.0777E-03     369.527E-03     130.980E+06     138.012E+06     45.1854E+06    -11.7068E+06    -11.4719E+06     44.9505E+06     138.012E+06     2.64395E+06
            1023     19.6713E-03     13.5533E-03     14.2572E-03     344.075E-03    -167.012E-03    -177.064E-03    -174.115E-03     341.127E-03    -167.012E-03     77.2512E-03     371.255E-03     86.1251E+06     77.5197E+06     21.8650E+06    -21.3399E+06    -16.4438E+06     16.9689E+06     77.5197E+06    -1.55706E+06
            1024     19.0336E-03     12.7103E-03     14.1678E-03     343.751E-03    -166.324E-03    -177.427E-03    -175.548E-03     341.872E-03    -166.324E-03     62.3301E-03     364.622E-03     58.2678E+06     45.6108E+06     6.03523E+06    -20.4026E+06    -11.9843E+06    -2.38305E+06     45.6108E+06    -939.099E+03
            1025     18.4100E-03     11.8731E-03     14.0697E-03     343.121E-03    -165.565E-03    -177.556E-03    -176.170E-03     341.735E-03    -165.565E-03     53.2651E-03     361.684E-03     56.2778E+06     31.2482E+06    -7.31602E+06    -32.5916E+06    -22.5521E+06    -17.3555E+06     31.2482E+06     991.625E+03
            1026     17.8107E-03     11.0340E-03     13.9812E-03     341.962E-03    -164.664E-03    -177.298E-03    -176.411E-03     341.075E-03    -164.664E-03     42.6224E-03     357.941E-03     56.4477E+06     22.4302E+06    -15.0301E+06    -41.6906E+06    -32.4079E+06    -24.3129E+06     22.4302E+06    -4.22461E+06
            1027     17.2503E-03     10.1951E-03     13.9152E-03     340.431E-03    -163.656E-03    -176.775E-03    -176.199E-03     339.855E-03    -163.656E-03     34.3090E-03     353.948E-03     56.3115E+06     30.7157E+06    -10.1514E+06    -32.9580E+06    -28.4780E+06    -14.6314E+06     30.7157E+06    -5.98850E+06
            1028     16.7128E-03     9.35540E-03     13.8490E-03     338.870E-03    -162.475E-03    -176.396E-03    -176.049E-03     338.523E-03    -162.475E-03     26.3782E-03     350.029E-03     62.0197E+06     31.0765E+06    -13.8167E+06    -39.6305E+06    -36.5680E+06    -16.8792E+06     31.0765E+06     993.378E+03
            1029     16.2117E-03     8.51873E-03     13.7932E-03     335.941E-03    -161.096E-03    -174.845E-03    -174.678E-03     335.775E-03    -161.096E-03     17.8786E-03     345.015E-03     60.5220E+06     25.1465E+06    -18.5472E+06    -43.9019E+06    -42.3559E+06    -20.0933E+06     25.1465E+06     3.39674E+06
            1030     15.7444E-03     7.67558E-03     13.7466E-03     331.308E-03    -159.631E-03    -171.677E-03    -171.616E-03     331.247E-03    -159.631E-03     9.82696E-03     338.488E-03     54.0625E+06     12.0276E+06    -25.2742E+06    -49.9203E+06    -48.9021E+06    -26.2924E+06     12.0276E+06     3.43092E+06
            1031     15.3131E-03     6.83119E-03     13.7049E-03     326.979E-03    -158.184E-03    -168.795E-03    -168.777E-03     326.960E-03    -158.184E-03     2.53315E-03     332.510E-03     49.9725E+06    -78.9646E+03    -33.0024E+06    -57.5761E+06    -56.1971E+06    -34.3814E+06    -78.9646E+03     5.60872E+06
            1032     14.9222E-03     5.98726E-03     13.6684E-03     322.731E-03    -156.729E-03    -166.003E-03    -165.988E-03     322.717E-03    -156.729E-03    -3.03058E-03     326.895E-03     44.3623E+06    -12.3657E+06    -41.2693E+06    -63.4198E+06    -62.2557E+06    -42.4334E+06    -12.3657E+06     4.91427E+06
            1033     14.5765E-03     5.13818E-03     13.6409E-03     318.060E-03    -155.293E-03    -162.767E-03    -162.737E-03     318.031E-03    -155.293E-03    -6.68117E-03     321.044E-03     36.5511E+06    -32.4386E+06    -57.3971E+06    -74.0831E+06    -71.5906E+06    -59.8896E+06    -32.4386E+06     3.88508E+06
            1034     14.2800E-03     4.28871E-03     13.6207E-03     313.493E-03    -153.990E-03    -159.504E-03    -159.462E-03     313.452E-03    -153.990E-03    -8.50479E-03     315.511E-03     30.5602E+06    -51.9264E+06    -75.2617E+06    -86.2686E+06    -81.9103E+06    -79.6200E+06    -51.9264E+06     3.54936E+06
            1035     14.0317E-03     3.43339E-03     13.6052E-03     309.479E-03    -152.886E-03    -156.593E-03    -156.550E-03     309.435E-03    -152.886E-03    -8.65644E-03     310.715E-03     31.1419E+06    -65.4924E+06    -85.3499E+06    -100.665E+06    -88.8404E+06    -97.1745E+06    -65.4924E+06     4.84518E+06
            1036     13.8366E-03     2.57746E-03     13.5945E-03     306.252E-03    -151.968E-03    -154.284E-03    -154.247E-03     306.216E-03    -151.968E-03    -7.74206E-03     306.914E-03     34.9954E+06    -79.9103E+06    -93.4203E+06    -119.101E+06    -94.8418E+06    -117.680E+06    -79.9103E+06     3.55612E+06
            1037     13.6943E-03     1.71961E-03     13.5859E-03     303.814E-03    -151.204E-03    -152.610E-03    -152.588E-03     303.792E-03    -151.204E-03    -5.99257E-03     304.080E-03     41.5975E+06    -93.0873E+06    -104.415E+06    -139.029E+06    -104.529E+06    -138.914E+06    -93.0873E+06     520.707E+03
            1038     13.6091E-03     860.426E-06     13.5818E-03     301.901E-03    -150.619E-03    -151.283E-03    -151.165E-03     301.894E-03    -150.729E-03    -3.01388E-03     301.933E-03     77.8198E+06    -102.534E+06    -111.669E+06    -184.075E+06    -109.145E+06    -183.944E+06    -105.189E+06     1.00598E+06
            1039     19.4021E-03     14.4065E-03     12.9960E-03     344.955E-03    -167.347E-03    -177.609E-03    -174.203E-03     341.549E-03    -167.347E-03     83.6703E-03     372.074E-03     131.442E+06     140.114E+06     47.9552E+06    -10.2758E+06    -9.05283E+06     46.7323E+06     140.114E+06    -432.268E+03
            1040     18.6860E-03     13.5568E-03     12.8601E-03     344.765E-03    -166.602E-03    -178.163E-03    -175.167E-03     341.769E-03    -166.602E-03     77.5746E-03     372.224E-03     82.0687E+06     77.4815E+06     25.7598E+06    -16.8682E+06    -11.7570E+06     20.6486E+06     77.4815E+06    -467.880E+03
            1041     18.0108E-03     12.7184E-03     12.7527E-03     345.228E-03    -165.770E-03    -179.458E-03    -177.719E-03     343.489E-03    -165.770E-03     60.2235E-03     366.796E-03     58.2274E+06     36.1652E+06    -5.54867E+06    -29.2521E+06    -23.8362E+06    -10.9646E+06     36.1652E+06    -3.10348E+06
            1042     17.3644E-03     11.8834E-03     12.6613E-03     344.627E-03    -164.849E-03    -179.777E-03    -178.434E-03     343.283E-03    -164.849E-03     52.8434E-03     364.261E-03     57.0935E+06     36.1721E+06    -9.94052E+06    -27.3306E+06    -23.0266E+06    -14.2446E+06     36.1721E+06     1.38706E+06
            1043     16.7399E-03     11.0440E-03     12.5799E-03     342.599E-03    -163.733E-03    -178.866E-03    -177.967E-03     341.700E-03    -163.733E-03     42.9174E-03     359.290E-03     52.1389E+06     29.5262E+06    -7.03477E+06    -29.6608E+06    -21.8428E+06    -14.8528E+06     29.5262E+06     1.99019E+06
            1044     16.1428E-03     10.2055E-03     12.5075E-03     342.040E-03    -162.404E-03    -179.636E-03    -179.121E-03     341.525E-03    -162.404E-03     32.2816E-03     356.318E-03     50.6358E+06     17.2378E+06    -17.2895E+06    -40.6134E+06    -35.5205E+06    -22.3823E+06     17.2378E+06     2.84887E+06
            1045     15.5799E-03     9.37097E-03     12.4467E-03     340.124E-03    -160.830E-03    -179.294E-03    -179.040E-03     339.870E-03    -160.830E-03     22.0206E-03     352.254E-03     52.5904E+06     18.3175E+06    -17.6959E+06    -41.5604E+06    -38.6736E+06    -20.5828E+06     18.3175E+06     784.396E+03
            1046     15.0455E-03     8.53169E-03     12.3926E-03     336.245E-03    -159.025E-03    -177.220E-03    -177.128E-03     336.153E-03    -159.025E-03     11.7674E-03     346.513E-03     52.3450E+06     15.2312E+06    -19.5924E+06    -44.5710E+06    -42.5597E+06    -21.6037E+06     15.2312E+06    -2.77380E+06
            1047     14.5553E-03     7.69561E-03     12.3545E-03     331.699E-03    -157.076E-03    -174.623E-03    -174.606E-03     331.682E-03    -157.076E-03     2.95215E-03     340.075E-03     55.3770E+06     12.1703E+06    -24.7323E+06    -51.4848E+06    -50.3980E+06    -25.8190E+06     12.1703E+06     2.96079E+06
            1048     14.0972E-03     6.85634E-03     12.3175E-03     325.388E-03    -155.036E-03    -170.352E-03    -170.338E-03     325.374E-03    -155.036E-03    -3.76753E-03     331.976E-03     52.6447E+06     3.19104E+06    -30.4141E+06    -57.4630E+06    -56.0508E+06    -31.8263E+06     3.19104E+06     6.00921E+06
            1049     13.6824E-03     6.00984E-03     12.2918E-03     318.281E-03    -153.063E-03    -165.218E-03    -165.177E-03     318.240E-03    -153.063E-03    -8.52142E-03     323.287E-03     45.8570E+06    -15.3488E+06    -41.1094E+06    -68.0391E+06    -65.5238E+06    -43.6247E+06    -15.3488E+06     7.42075E+06
            1050     13.3116E-03     5.16077E-03     12.2705E-03     311.973E-03    -151.279E-03    -160.693E-03    -160.616E-03     311.896E-03    -151.279E-03    -11.7536E-03     315.608E-03     38.0630E+06    -31.4041E+06    -51.3894E+06    -75.1240E+06    -71.1132E+06    -55.4002E+06    -31.4041E+06     8.58623E+06
            1051     12.9921E-03     4.30594E-03     12.2578E-03     306.468E-03    -149.674E-03    -156.794E-03    -156.694E-03     306.368E-03    -149.674E-03    -13.3646E-03     308.971E-03     30.2452E+06    -48.2950E+06    -67.1628E+06    -82.9885E+06    -78.3995E+06    -71.7519E+06    -48.2950E+06     6.60307E+06
            1052     12.7254E-03     3.45045E-03     12.2487E-03     301.535E-03    -148.246E-03    -153.289E-03    -153.192E-03     301.438E-03    -148.246E-03    -13.0784E-03     303.093E-03     28.1727E+06    -67.8111E+06    -85.5450E+06    -99.9873E+06    -90.6589E+06    -94.8734E+06    -67.8111E+06     5.08419E+06
            1053     12.5134E-03     2.59094E-03     12.2422E-03     297.218E-03    -147.044E-03    -150.174E-03    -150.102E-03     297.145E-03    -147.044E-03    -11.2088E-03     298.066E-03     29.8095E+06    -81.7626E+06    -94.4955E+06    -115.322E+06    -96.2920E+06    -113.525E+06    -81.7626E+06     4.54219E+06
            1054     12.3604E-03     1.72897E-03     12.2389E-03     293.855E-03    -146.115E-03    -147.741E-03    -147.701E-03     293.816E-03    -146.115E-03    -8.17882E-03     294.189E-03     39.9241E+06    -90.9616E+06    -100.665E+06    -134.553E+06    -99.9112E+06    -133.883E+06    -92.3852E+06     4.05548E+06
            1055     12.2674E-03     865.382E-06     12.2368E-03     291.673E-03    -145.343E-03    -146.329E-03    -146.217E-03     291.658E-03    -145.441E-03    -4.54548E-03     291.740E-03     76.2242E+06    -98.8454E+06    -108.358E+06    -179.006E+06    -106.020E+06    -178.574E+06    -101.615E+06     1.57120E+06
            1056     18.4814E-03     14.3975E-03     11.5877E-03     347.035E-03    -167.123E-03    -179.912E-03    -176.469E-03     343.592E-03    -167.123E-03     84.5424E-03     374.517E-03     133.101E+06     140.546E+06     48.9459E+06    -12.0425E+06    -9.12466E+06     46.0280E+06     140.546E+06    -1.94752E+06
            1057     17.7541E-03     13.5677E-03     11.4510E-03     347.886E-03    -166.216E-03    -181.670E-03    -178.562E-03     344.778E-03    -166.216E-03     79.8021E-03     376.600E-03     91.1201E+06     77.8788E+06     17.2091E+06    -26.8794E+06    -25.4392E+06     15.7688E+06     77.8788E+06     34.9896E+03
            1058     17.0517E-03     12.7284E-03     11.3467E-03     345.649E-03    -165.205E-03    -180.444E-03    -178.551E-03     343.756E-03    -165.205E-03     62.8357E-03     367.818E-03     57.7329E+06     40.7877E+06    -3.27078E+06    -23.9703E+06    -22.6186E+06    -4.62247E+06     40.7877E+06     2.01426E+06
            1059     16.3678E-03     11.8878E-03     11.2510E-03     345.454E-03    -164.089E-03    -181.364E-03    -180.014E-03     344.103E-03    -164.089E-03     52.8697E-03     366.150E-03     43.2324E+06     26.2094E+06    -11.4330E+06    -20.9230E+06    -18.4230E+06    -13.9330E+06     26.2094E+06    -2.64456E+06
            1060     15.7168E-03     11.0536E-03     11.1730E-03     345.595E-03    -162.750E-03    -182.845E-03    -182.033E-03     344.783E-03    -162.750E-03     40.9271E-03     363.672E-03     51.0517E+06     24.6957E+06    -16.1185E+06    -32.3877E+06    -29.1730E+06    -19.3332E+06     24.6957E+06     1.12312E+06
            1061     15.0881E-03     10.2206E-03     11.0990E-03     344.177E-03    -161.066E-03    -183.112E-03    -182.694E-03     343.759E-03    -161.066E-03     28.9649E-03     360.093E-03     57.6214E+06     25.2584E+06    -17.5405E+06    -40.1539E+06    -37.3945E+06    -20.2999E+06     25.2584E+06     4.59411E+06
            1062     14.4906E-03     9.38746E-03     11.0387E-03     340.956E-03    -159.031E-03    -181.925E-03    -181.775E-03     340.806E-03    -159.031E-03     16.4983E-03     355.069E-03     51.8050E+06     18.9749E+06    -15.2827E+06    -40.2369E+06    -36.7945E+06    -18.7251E+06     18.9749E+06     139.140E+03
            1063     13.9324E-03     8.55513E-03     10.9964E-03     335.984E-03    -156.780E-03    -179.204E-03    -179.177E-03     335.957E-03    -156.780E-03     6.16216E-03     348.191E-03     48.7345E+06     8.85646E+06    -21.3021E+06    -47.1300E+06    -44.4384E+06    -23.9937E+06     8.85646E+06    -796.106E+03
            1064     13.4016E-03     7.71695E-03     10.9568E-03     329.661E-03    -154.436E-03    -175.225E-03    -175.219E-03     329.655E-03    -154.436E-03    -1.20430E-03     339.895E-03     51.2713E+06     3.53351E+06    -28.1980E+06    -55.5076E+06    -53.9328E+06    -29.7727E+06     3.53351E+06    -216.084E+03
            1065     12.9187E-03     6.87636E-03     10.9366E-03     322.379E-03    -152.057E-03    -170.322E-03    -170.297E-03     322.353E-03    -152.057E-03    -6.64147E-03     330.710E-03     50.7386E+06    -3.45055E+06    -32.8188E+06    -61.9556E+06    -59.9331E+06    -34.8413E+06    -3.45055E+06     3.10782E+06
            1066     12.4746E-03     6.03138E-03     10.9196E-03     314.428E-03    -149.745E-03    -164.682E-03    -164.619E-03     314.365E-03    -149.745E-03    -10.7444E-03     320.924E-03     46.5743E+06    -16.6785E+06    -41.1052E+06    -70.2420E+06    -67.6874E+06    -43.6598E+06    -16.6785E+06     7.35004E+06
            1067     12.0769E-03     5.18009E-03     10.9095E-03     306.680E-03    -147.626E-03    -159.055E-03    -158.951E-03     306.577E-03    -147.626E-03    -13.8186E-03     311.549E-03     40.7954E+06    -31.4702E+06    -51.7956E+06    -78.3381E+06    -75.2890E+06    -54.8447E+06    -31.4702E+06     7.63080E+06
            1068     11.7308E-03     4.32584E-03     10.9041E-03     299.904E-03    -145.746E-03    -154.158E-03    -154.035E-03     299.781E-03    -145.746E-03    -14.9363E-03     303.306E-03     34.7972E+06    -45.6251E+06    -63.6161E+06    -85.6754E+06    -81.8493E+06    -67.4423E+06    -45.6251E+06     8.16191E+06
            1069     11.4399E-03     3.46619E-03     10.9021E-03     294.071E-03    -144.096E-03    -149.975E-03    -149.863E-03     293.958E-03    -144.096E-03    -14.0841E-03     296.231E-03     29.9703E+06    -61.4301E+06    -75.0507E+06    -95.6682E+06    -85.1684E+06    -85.5506E+06    -61.4301E+06     7.80290E+06
            1070     11.2104E-03     2.60323E-03     10.9040E-03     288.983E-03    -142.726E-03    -146.257E-03    -146.176E-03     288.902E-03    -142.726E-03    -11.8121E-03     290.168E-03     27.9169E+06    -78.2451E+06    -87.0809E+06    -109.350E+06    -89.7738E+06    -106.657E+06    -78.2451E+06     4.78880E+06
            1071     11.0415E-03     1.73720E-03     10.9040E-03     285.158E-03    -141.758E-03    -143.400E-03    -143.355E-03     285.113E-03    -141.758E-03    -8.59204E-03     285.672E-03     41.2269E+06    -83.0372E+06    -94.6329E+06    -128.127E+06    -93.8124E+06    -127.523E+06    -84.4608E+06     3.19912E+06
            1072     10.9421E-03     868.455E-06     10.9075E-03     282.922E-03    -141.010E-03    -141.913E-03    -141.896E-03     282.906E-03    -141.010E-03    -4.98296E-03     283.063E-03     75.0182E+06    -94.9977E+06    -106.184E+06    -173.963E+06    -105.608E+06    -173.115E+06    -96.4212E+06     3.39553E+06
            1073     17.6445E-03     14.4123E-03     10.1791E-03     348.754E-03    -166.917E-03    -181.837E-03    -178.322E-03     345.239E-03    -166.917E-03     85.1062E-03     376.730E-03     131.905E+06     139.326E+06     50.2883E+06    -11.8271E+06    -8.03525E+06     46.4964E+06     139.326E+06     4.11017E+06
            1074     16.8767E-03     13.5670E-03     10.0379E-03     349.171E-03    -165.898E-03    -183.273E-03    -179.892E-03     345.790E-03    -165.898E-03     83.3125E-03     379.109E-03     86.6569E+06     76.6166E+06     21.5332E+06    -23.1117E+06    -18.3122E+06     16.7337E+06     76.6166E+06    -1.56796E+06
            1075     16.1515E-03     12.7321E-03     9.93803E-03     348.908E-03    -164.738E-03    -184.169E-03    -182.219E-03     346.957E-03    -164.738E-03     64.0932E-03     372.497E-03     57.2768E+06     45.4692E+06     2.00578E+06    -18.9131E+06    -15.8208E+06    -1.08657E+06     45.4692E+06    -3.19149E+06
            1076     15.4415E-03     11.8983E-03     9.84217E-03     348.931E-03    -163.310E-03    -185.621E-03    -184.357E-03     347.667E-03    -163.310E-03     51.3941E-03     371.323E-03     49.8285E+06     25.1259E+06    -17.1882E+06    -29.6557E+06    -28.4159E+06    -18.4280E+06     25.1259E+06    -568.508E+03
            1077     14.7528E-03     11.0666E-03     9.75591E-03     348.231E-03    -161.550E-03    -186.681E-03    -186.008E-03     347.558E-03    -161.550E-03     37.1876E-03     368.297E-03     48.8262E+06     19.5285E+06    -20.2302E+06    -34.9107E+06    -32.7718E+06    -22.3690E+06     19.5285E+06    -1.15855E+06
            1078     14.0953E-03     10.2377E-03     9.68850E-03     344.747E-03    -159.498E-03    -185.249E-03    -184.941E-03     344.439E-03    -159.498E-03     25.0068E-03     363.073E-03     48.7041E+06     24.6729E+06    -13.0798E+06    -30.2801E+06    -28.0275E+06    -15.3324E+06     24.6729E+06    -2.97025E+06
            1079     13.4633E-03     9.40596E-03     9.63270E-03     339.538E-03    -157.239E-03    -182.299E-03    -182.181E-03     339.420E-03    -157.239E-03     14.9089E-03     356.124E-03     53.9840E+06     18.3321E+06    -20.0610E+06    -43.2804E+06    -41.3058E+06    -22.0357E+06     18.3321E+06     1.93874E+06
            1080     12.8659E-03     8.57209E-03     9.59429E-03     333.669E-03    -154.826E-03    -178.843E-03    -178.817E-03     333.643E-03    -154.826E-03     6.43786E-03     348.299E-03     52.3995E+06     13.0938E+06    -20.3810E+06    -47.2606E+06    -44.7460E+06    -22.8956E+06     13.0938E+06     7.71201E+06
            1081     12.3072E-03     7.73554E-03     9.57234E-03     326.325E-03    -152.330E-03    -173.995E-03    -173.988E-03     326.318E-03    -152.330E-03    -232.126E-06     339.012E-03     47.7373E+06     2.55222E+06    -23.0176E+06    -52.3662E+06    -48.9190E+06    -26.4647E+06     2.55222E+06     5.01206E+06
            1082     11.7824E-03     6.89193E-03     9.55649E-03     318.630E-03    -149.880E-03    -168.751E-03    -168.732E-03     318.611E-03    -149.880E-03    -5.33771E-03     329.273E-03     49.9409E+06    -9.81604E+06    -36.0398E+06    -67.2667E+06    -64.1931E+06    -39.1135E+06    -9.81604E+06     3.26372E+06
            1083     11.3050E-03     6.04609E-03     9.55241E-03     310.888E-03    -147.513E-03    -163.375E-03    -163.331E-03     310.845E-03    -147.513E-03    -8.52140E-03     319.424E-03     48.7128E+06    -14.5771E+06    -42.7142E+06    -70.8002E+06    -69.8243E+06    -43.6901E+06    -14.5771E+06     3.46347E+06
            1084     10.8755E-03     5.19508E-03     9.55442E-03     302.821E-03    -145.268E-03    -157.553E-03    -157.490E-03     302.758E-03    -145.268E-03    -10.1972E-03     309.260E-03     43.0520E+06    -27.8713E+06    -50.6121E+06    -77.4462E+06    -75.7246E+06    -52.3337E+06    -27.8713E+06     5.84636E+06
            1085     10.4965E-03     4.33728E-03     9.55849E-03     295.358E-03    -143.262E-03    -152.096E-03    -152.024E-03     295.287E-03    -143.262E-03    -10.8475E-03     299.905E-03     34.2897E+06    -46.2839E+06    -62.2520E+06    -85.6133E+06    -82.9046E+06    -64.9607E+06    -46.2839E+06     6.89931E+06
            1086     10.1782E-03     3.47541E-03     9.56646E-03     289.104E-03    -141.576E-03    -147.528E-03    -147.460E-03     289.036E-03    -141.576E-03    -10.6720E-03     292.060E-03     29.4820E+06    -60.1947E+06    -75.7809E+06    -93.5158E+06    -88.5709E+06    -80.7258E+06    -60.1947E+06     5.57262E+06
            1087     9.92228E-03     2.61044E-03     9.57273E-03     284.097E-03    -140.180E-03    -143.917E-03    -143.861E-03     284.041E-03    -140.180E-03    -9.61617E-03     285.765E-03     30.8730E+06    -72.5056E+06    -86.5056E+06    -106.796E+06    -94.4212E+06    -98.8804E+06    -72.5056E+06     5.62248E+06
            1088     9.73948E-03     1.74175E-03     9.58247E-03     280.093E-03    -139.060E-03    -141.033E-03    -140.998E-03     280.058E-03    -139.060E-03    -7.49835E-03     280.843E-03     37.4466E+06    -86.8180E+06    -98.6913E+06    -127.959E+06    -102.730E+06    -123.921E+06    -86.8180E+06     4.49921E+06
            1089     9.62259E-03     872.548E-06     9.58295E-03     277.329E-03    -138.199E-03    -139.130E-03    -138.805E-03     277.316E-03    -138.511E-03    -4.43082E-03     277.516E-03     63.3039E+06    -99.0712E+06    -107.921E+06    -165.270E+06    -107.108E+06    -164.484E+06    -100.669E+06     4.34641E+06
            1090     16.8697E-03     14.4070E-03     8.77647E-03     351.425E-03    -166.788E-03    -184.637E-03    -181.044E-03     347.832E-03    -166.788E-03     86.3307E-03     380.472E-03     129.637E+06     138.532E+06     51.2349E+06    -10.0434E+06    -7.34253E+06     48.5341E+06     138.532E+06    -374.214E+03
            1091     16.0809E-03     13.5709E-03     8.62709E-03     352.269E-03    -165.594E-03    -186.675E-03    -183.324E-03     348.918E-03    -165.594E-03     82.7475E-03     384.131E-03     82.7316E+06     88.2328E+06     36.9629E+06    -7.11748E+06    -2.82888E+06     32.6743E+06     88.2328E+06     3.13491E+06
            1092     15.3233E-03     12.7376E-03     8.51807E-03     352.139E-03    -164.129E-03    -188.010E-03    -186.274E-03     350.403E-03    -164.129E-03     60.9157E-03     377.608E-03     58.6319E+06     37.5458E+06    -4.53935E+06    -29.1793E+06    -26.4118E+06    -7.30690E+06     37.5458E+06    -2.16894E+06
            1093     14.5887E-03     11.9106E-03     8.42431E-03     352.320E-03    -162.372E-03    -189.948E-03    -188.767E-03     351.139E-03    -162.372E-03     50.1120E-03     376.945E-03     52.9266E+06     24.7762E+06    -19.9355E+06    -33.3204E+06    -33.0141E+06    -20.2417E+06     24.7762E+06     246.621E+03
            1094     13.8704E-03     11.0838E-03     8.33878E-03     348.725E-03    -160.316E-03    -188.408E-03    -187.771E-03     348.087E-03    -160.316E-03     36.3321E-03     370.948E-03     48.8962E+06     26.8292E+06    -14.1459E+06    -26.8979E+06    -24.4806E+06    -16.5633E+06     26.8292E+06     867.834E+03
            1095     13.1777E-03     10.2539E-03     8.27706E-03     342.693E-03    -158.080E-03    -184.613E-03    -184.316E-03     342.396E-03    -158.080E-03     24.5451E-03     363.506E-03     46.6176E+06     18.8575E+06    -14.1136E+06    -34.0893E+06    -29.3865E+06    -18.8164E+06     18.8575E+06     2.55032E+06
            1096     12.5106E-03     9.42076E-03     8.23198E-03     335.671E-03    -155.825E-03    -179.846E-03    -179.707E-03     335.532E-03    -155.825E-03     16.4929E-03     354.835E-03     46.4922E+06     10.8167E+06    -19.6185E+06    -42.4505E+06    -39.0950E+06    -22.9739E+06     10.8167E+06     4.61980E+06
            1097     11.8709E-03     8.58294E-03     8.20073E-03     328.761E-03    -153.620E-03    -175.141E-03    -175.083E-03     328.703E-03    -153.620E-03     10.0003E-03     345.795E-03     50.2723E+06     8.84569E+06    -23.5685E+06    -49.0358E+06    -46.8226E+06    -25.7817E+06     8.84569E+06     6.28052E+06
            1098     11.2676E-03     7.74230E-03     8.18632E-03     322.251E-03    -151.426E-03    -170.825E-03    -170.801E-03     322.227E-03    -151.426E-03     5.35730E-03     337.298E-03     55.2094E+06     8.70404E+06    -22.9045E+06    -54.8274E+06    -51.3501E+06    -26.3818E+06     8.70404E+06     9.65489E+06
            1099     10.7052E-03     6.89970E-03     8.18508E-03     315.131E-03    -149.232E-03    -165.899E-03    -165.878E-03     315.110E-03    -149.232E-03     2.45404E-03     327.897E-03     53.2718E+06     765.960E+03    -27.9306E+06    -60.5143E+06    -57.0786E+06    -31.3663E+06     765.960E+03     8.10060E+06
            1100     10.1815E-03     6.04909E-03     8.18978E-03     307.981E-03    -147.117E-03    -160.864E-03    -160.847E-03     307.964E-03    -147.117E-03    -165.283E-06     318.357E-03     48.9555E+06    -12.7013E+06    -40.2306E+06    -69.1677E+06    -67.6328E+06    -41.7655E+06    -12.7013E+06     4.52569E+06
            1101     9.70949E-03     5.19524E-03     8.20266E-03     301.247E-03    -145.123E-03    -156.124E-03    -156.110E-03     301.233E-03    -145.123E-03    -2.04448E-03     309.218E-03     44.3087E+06    -24.2982E+06    -48.1329E+06    -75.3421E+06    -74.0095E+06    -49.4655E+06    -24.2982E+06     5.39269E+06
            1102     9.29261E-03     4.33782E-03     8.21803E-03     294.663E-03    -143.277E-03    -151.385E-03    -151.368E-03     294.645E-03    -143.277E-03    -3.28188E-03     300.387E-03     35.2569E+06    -41.8979E+06    -60.0494E+06    -82.4585E+06    -81.1795E+06    -61.3283E+06    -41.8979E+06     4.76701E+06
            1103     8.93657E-03     3.47632E-03     8.23271E-03     288.737E-03    -141.695E-03    -147.042E-03    -147.021E-03     288.717E-03    -141.695E-03    -3.93367E-03     292.497E-03     27.8586E+06    -61.0748E+06    -79.7053E+06    -92.6324E+06    -91.8986E+06    -80.4390E+06    -61.0748E+06     2.24373E+06
            1104     8.65164E-03     2.61010E-03     8.24853E-03     284.071E-03    -140.423E-03    -143.649E-03    -143.630E-03     284.053E-03    -140.423E-03    -3.73473E-03     286.224E-03     27.3921E+06    -74.0322E+06    -90.0257E+06    -104.635E+06    -97.5992E+06    -97.0611E+06    -74.0322E+06     2.19730E+06
            1105     8.44058E-03     1.74332E-03     8.25858E-03     280.564E-03    -139.436E-03    -141.129E-03    -141.115E-03     280.550E-03    -139.436E-03    -3.06698E-03     281.532E-03     35.8677E+06    -85.7880E+06    -95.3769E+06    -125.086E+06    -99.9670E+06    -120.496E+06    -85.7880E+06     3.35948E+06
            1106     8.31777E-03     871.342E-06     8.27200E-03     278.187E-03    -138.461E-03    -139.726E-03    -138.958E-03     278.180E-03    -139.221E-03    -1.17412E-03     278.451E-03     56.1915E+06    -95.9216E+06    -102.178E+06    -154.637E+06    -100.798E+06    -154.207E+06    -97.7311E+06     2.66147E+06
            1107     16.1763E-03     14.4080E-03     7.35394E-03     355.420E-03    -166.628E-03    -188.791E-03    -185.445E-03     352.073E-03    -166.628E-03     83.9244E-03     385.591E-03     133.790E+06     135.860E+06     46.7790E+06    -17.6749E+06    -13.9448E+06     43.0489E+06     135.860E+06    -9.26525E+06
            1108     15.3751E-03     13.5815E-03     7.20673E-03     357.185E-03    -165.124E-03    -192.062E-03    -188.926E-03     354.050E-03    -165.124E-03     80.9363E-03     391.458E-03     93.0118E+06     87.7571E+06     30.7503E+06    -19.5217E+06    -16.0571E+06     27.2856E+06     87.7571E+06    -3.20657E+06
            1109     14.5964E-03     12.7512E-03     7.10370E-03     355.025E-03    -163.280E-03    -191.745E-03    -190.157E-03     353.438E-03    -163.280E-03     58.5636E-03     382.192E-03     56.4386E+06     41.2048E+06     1.04626E+06    -22.6415E+06    -21.4844E+06    -110.809E+03     41.2048E+06     3.03598E+06
            1110     13.8234E-03     11.9220E-03     6.99665E-03     351.642E-03    -161.270E-03    -190.372E-03    -189.372E-03     350.642E-03    -161.270E-03     45.7317E-03     378.215E-03     42.9015E+06     23.5190E+06    -13.8018E+06    -22.9607E+06    -22.0120E+06    -14.7504E+06     23.5190E+06     884.491E+03
            1111     13.0790E-03     11.0947E-03     6.92584E-03     345.022E-03    -159.211E-03    -185.811E-03    -185.272E-03     344.483E-03    -159.211E-03     33.3517E-03     369.035E-03     46.0349E+06     20.2919E+06    -19.2784E+06    -29.8787E+06    -28.6670E+06    -20.4900E+06     20.2919E+06     3.12373E+06
            1112     12.3494E-03     10.2625E-03     6.86941E-03     337.452E-03    -157.203E-03    -180.249E-03    -179.920E-03     337.123E-03    -157.203E-03     25.8535E-03     359.715E-03     50.9853E+06     18.1853E+06    -19.5829E+06    -39.1344E+06    -36.2036E+06    -22.5137E+06     18.1853E+06     5.69673E+06
            1113     11.6447E-03     9.42670E-03     6.83648E-03     330.259E-03    -155.310E-03    -174.949E-03    -174.731E-03     330.041E-03    -155.310E-03     20.6790E-03     350.567E-03     52.9235E+06     18.8174E+06    -12.9893E+06    -41.7457E+06    -36.4045E+06    -18.3305E+06     18.8174E+06     8.88660E+06
            1114     10.9619E-03     8.58522E-03     6.81592E-03     323.108E-03    -153.561E-03    -169.547E-03    -169.399E-03     322.960E-03    -153.561E-03     16.4582E-03     340.882E-03     55.2495E+06     10.9017E+06    -20.3363E+06    -52.6360E+06    -47.5801E+06    -25.3922E+06     10.9017E+06     10.2028E+06
            1115     10.3083E-03     7.73860E-03     6.80996E-03     316.926E-03    -151.988E-03    -164.938E-03    -164.830E-03     316.818E-03    -151.988E-03     13.6718E-03     332.731E-03     57.6938E+06     6.18148E+06    -28.1941E+06    -60.3518E+06    -57.9038E+06    -30.6421E+06     6.18148E+06     6.56227E+06
            1116     9.68977E-03     6.88782E-03     6.81539E-03     312.036E-03    -150.511E-03    -161.526E-03    -161.439E-03     311.950E-03    -150.511E-03     12.0952E-03     325.613E-03     57.4370E+06     5.95410E+06    -27.5954E+06    -60.2969E+06    -58.5086E+06    -29.3837E+06     5.95410E+06     4.82995E+06
            1117     9.11690E-03     6.03731E-03     6.83146E-03     307.296E-03    -149.045E-03    -158.251E-03    -158.180E-03     307.225E-03    -149.045E-03     10.3252E-03     318.384E-03     52.9185E+06    -4.87836E+06    -33.6407E+06    -65.8835E+06    -63.7728E+06    -35.7514E+06    -4.87836E+06     6.71740E+06
            1118     8.59009E-03     5.18240E-03     6.85072E-03     302.628E-03    -147.627E-03    -155.001E-03    -154.940E-03     302.568E-03    -147.627E-03     8.55581E-03     311.309E-03     47.8252E+06    -22.0003E+06    -47.9804E+06    -77.1728E+06    -75.9485E+06    -49.2047E+06    -22.0003E+06     3.91615E+06
            1119     8.12149E-03     4.32509E-03     6.87402E-03     298.212E-03    -146.298E-03    -151.915E-03    -151.869E-03     298.166E-03    -146.298E-03     6.94606E-03     304.552E-03     40.6595E+06    -36.1505E+06    -58.9712E+06    -83.0927E+06    -82.4049E+06    -59.6590E+06    -36.1505E+06     2.46839E+06
            1120     7.71886E-03     3.46363E-03     6.89812E-03     293.949E-03    -145.080E-03    -148.869E-03    -148.841E-03     293.922E-03    -145.080E-03     5.15992E-03     298.180E-03     26.1178E+06    -56.6198E+06    -72.9665E+06    -86.5729E+06    -85.4133E+06    -74.1262E+06    -56.6198E+06     2.11961E+06
            1121     7.39016E-03     2.60087E-03     6.91737E-03     290.142E-03    -144.166E-03    -145.976E-03    -145.963E-03     290.128E-03    -144.166E-03     3.57611E-03     292.627E-03     20.4664E+06    -76.4812E+06    -86.9998E+06    -99.4765E+06    -90.0146E+06    -96.4618E+06    -76.4812E+06    -936.731E+03
            1122     7.14893E-03     1.73283E-03     6.93573E-03     287.971E-03    -143.663E-03    -144.309E-03    -144.303E-03     287.965E-03    -143.663E-03     2.57389E-03     289.118E-03     32.6852E+06    -83.9125E+06       -93.3E+06    -120.073E+06    -94.1312E+06    -119.242E+06    -83.9125E+06    -1.94723E+06
            1123     6.99877E-03     867.856E-06     6.94475E-03     287.157E-03    -143.136E-03    -144.021E-03    -143.568E-03     287.152E-03    -143.585E-03     1.42029E-03     287.515E-03     59.0320E+06    -90.3613E+06    -96.5350E+06    -151.862E+06    -96.9708E+06    -151.215E+06    -90.5726E+06    -1.71122E+06
            1124     15.5918E-03     14.4180E-03     5.93501E-03     361.983E-03    -166.409E-03    -195.573E-03    -191.996E-03     358.405E-03    -166.409E-03     87.8483E-03     393.553E-03     128.524E+06     137.203E+06     52.4378E+06    -10.3677E+06    -5.68566E+06     47.7558E+06     137.203E+06     1.21243E+06
            1125     14.7633E-03     13.5840E-03     5.78182E-03     363.384E-03    -164.442E-03    -198.942E-03    -195.840E-03     360.282E-03    -164.442E-03     80.1551E-03     399.354E-03     90.9930E+06     68.9799E+06     21.2606E+06    -35.0724E+06    -25.5633E+06     11.7515E+06     68.9799E+06    -9.69995E+06
            1126     13.9674E-03     12.7642E-03     5.67139E-03     357.316E-03    -162.263E-03    -195.053E-03    -193.764E-03     356.028E-03    -162.263E-03     52.7129E-03     385.026E-03     61.0458E+06     37.3208E+06     2.00906E+06    -30.9964E+06    -24.5899E+06    -4.39749E+06     37.3208E+06    -4.43365E+06
            1127     13.1821E-03     11.9410E-03     5.58396E-03     347.730E-03    -160.162E-03    -187.568E-03    -186.806E-03     346.968E-03    -160.162E-03     39.7175E-03     373.646E-03     44.9997E+06     26.9981E+06    -10.6846E+06    -22.5466E+06    -21.5181E+06    -11.7131E+06     26.9981E+06     2.91104E+06
            1128     12.4003E-03     11.1062E-03     5.51554E-03     337.356E-03    -158.333E-03    -179.022E-03    -178.615E-03     336.949E-03    -158.333E-03     28.8492E-03     360.374E-03     42.9553E+06     16.7808E+06    -20.2761E+06    -30.2385E+06    -29.7921E+06    -20.7225E+06     16.7808E+06     1.02704E+06
            1129     11.6365E-03     10.2669E-03     5.47715E-03     329.103E-03    -156.854E-03    -172.249E-03    -171.929E-03     328.784E-03    -156.854E-03     25.2991E-03     350.123E-03     48.0726E+06     13.6265E+06    -23.8323E+06    -40.1708E+06    -38.7687E+06    -25.2345E+06     13.6265E+06     2.79032E+06
            1130     10.8823E-03     9.42087E-03     5.44708E-03     322.766E-03    -155.681E-03    -167.085E-03    -166.816E-03     322.496E-03    -155.681E-03     22.8748E-03     341.269E-03     60.2589E+06     18.2335E+06    -20.6562E+06    -50.6156E+06    -45.9990E+06    -25.2728E+06     18.2335E+06     7.65439E+06
            1131     10.1536E-03     8.57380E-03     5.43930E-03     317.142E-03    -154.736E-03    -162.406E-03    -162.176E-03     316.912E-03    -154.736E-03     20.9479E-03     333.097E-03     63.7898E+06     21.5904E+06    -17.1139E+06    -51.5017E+06    -46.8439E+06    -21.7718E+06     21.5904E+06     8.46979E+06
            1132     9.44606E-03     7.72174E-03     5.44085E-03     312.658E-03    -153.828E-03    -158.830E-03    -158.426E-03     312.430E-03    -154.004E-03     20.5561E-03     326.760E-03     58.8209E+06     16.7771E+06    -18.2931E+06    -50.9090E+06    -48.6744E+06    -20.5277E+06     16.7771E+06     5.77908E+06
            1133     8.76881E-03     6.86798E-03     5.45187E-03     309.827E-03    -152.723E-03    -157.104E-03    -156.163E-03     309.614E-03    -153.451E-03     19.5786E-03     321.963E-03     55.9362E+06     5.67817E+06    -27.6223E+06    -58.8483E+06    -57.9791E+06    -28.4916E+06     5.67817E+06     2.64682E+06
            1134     8.12755E-03     6.01127E-03     5.47008E-03     308.103E-03    -151.944E-03    -156.159E-03    -154.918E-03     307.905E-03    -152.987E-03     18.8160E-03     318.127E-03     54.0275E+06    -3.99402E+06    -34.1368E+06    -66.2427E+06    -65.0852E+06    -35.2943E+06    -3.99402E+06     1.71963E+06
            1135     7.53571E-03     5.15537E-03     5.49628E-03     306.730E-03    -151.766E-03    -154.964E-03    -154.043E-03     306.553E-03    -152.510E-03     17.7758E-03     314.643E-03     45.5224E+06    -19.7520E+06    -41.8234E+06    -72.0162E+06    -70.5349E+06    -43.3046E+06    -19.7520E+06     1.58755E+06
            1136     6.99800E-03     4.29724E-03     5.52320E-03     305.505E-03    -151.558E-03    -153.947E-03    -153.336E-03     305.360E-03    -152.024E-03     15.9777E-03     311.383E-03     35.0747E+06    -38.4132E+06    -55.7811E+06    -78.6723E+06    -76.8364E+06    -57.6171E+06    -38.4132E+06    -619.613E+03
            1137     6.53001E-03     3.44083E-03     5.54993E-03     304.274E-03    -151.331E-03    -152.944E-03    -152.621E-03     304.173E-03    -151.551E-03     13.1536E-03     308.301E-03     25.9820E+06    -54.3732E+06    -71.4353E+06    -83.4979E+06    -81.5823E+06    -73.3509E+06    -54.3732E+06    -2.00037E+06
            1138     6.14480E-03     2.58085E-03     5.57654E-03     303.049E-03    -151.114E-03    -151.935E-03    -151.869E-03     302.991E-03    -151.122E-03     9.67058E-03     305.458E-03     23.6397E+06    -71.5085E+06    -85.6091E+06    -97.7067E+06    -87.2865E+06    -96.0292E+06    -71.5085E+06     161.274E+03
            1139     5.85361E-03     1.72197E-03     5.59460E-03     302.099E-03    -150.792E-03    -151.308E-03    -151.282E-03     302.074E-03    -150.792E-03     6.31959E-03     303.181E-03     28.5105E+06    -86.3272E+06    -94.7343E+06    -117.932E+06    -95.1075E+06    -117.559E+06    -86.3272E+06    -831.155E+03
            1140     5.66996E-03     859.788E-06     5.60439E-03     301.626E-03    -150.292E-03    -151.334E-03    -151.325E-03     301.618E-03    -150.292E-03     2.83994E-03     301.911E-03     58.8673E+06    -95.9998E+06    -99.8802E+06    -156.524E+06    -100.347E+06    -155.846E+06    -96.2111E+06    -5.95195E+06
            1141     15.0950E-03     14.4082E-03     4.50146E-03     371.894E-03    -166.279E-03    -205.615E-03    -201.968E-03     368.247E-03    -166.279E-03     90.9119E-03     408.175E-03     125.641E+06     142.508E+06     58.4341E+06    -1.79604E+06     855.382E+03     55.7827E+06     142.508E+06     4.14284E+06
            1142     14.2762E-03     13.6017E-03     4.33636E-03     369.603E-03    -163.749E-03    -205.854E-03    -203.100E-03     366.850E-03    -163.749E-03     75.3628E-03     405.927E-03     83.1728E+06     69.6812E+06     31.7589E+06    -24.2905E+06    -12.8252E+06     20.2936E+06     69.6812E+06     2.83243E+06
            1143     13.4689E-03     12.7815E-03     4.24796E-03     355.829E-03    -161.297E-03    -194.532E-03    -193.561E-03     354.857E-03    -161.297E-03     46.1583E-03     382.351E-03     62.7901E+06     28.9595E+06     4.31999E+06    -41.1127E+06     -27.429E+06    -9.36373E+06     28.9595E+06    -4.18848E+06
            1144     12.6563E-03     11.9502E-03     4.16855E-03     342.052E-03    -159.302E-03    -182.750E-03    -182.104E-03     341.406E-03    -159.302E-03     36.3046E-03     365.072E-03     48.8274E+06     11.4622E+06    -23.0943E+06    -43.3433E+06    -40.0009E+06    -26.4368E+06     11.4622E+06    -3.59304E+06
            1145     11.8543E-03     11.1132E-03     4.12590E-03     330.222E-03    -157.875E-03    -172.347E-03    -171.995E-03     329.869E-03    -157.875E-03     26.4293E-03     348.728E-03     48.4886E+06     13.4867E+06    -23.6314E+06    -40.7664E+06    -37.8837E+06    -26.5141E+06     13.4867E+06     3.08116E+06
            1146     11.0499E-03     10.2641E-03     4.09251E-03     321.059E-03    -156.668E-03    -164.390E-03    -163.801E-03     320.792E-03    -156.990E-03     22.6637E-03     337.370E-03     54.3377E+06     19.7563E+06    -17.7849E+06    -42.1963E+06    -37.8328E+06    -22.1484E+06     19.7563E+06     7.66968E+06
            1147     10.2571E-03     9.41363E-03     4.07330E-03     314.377E-03    -154.580E-03    -159.797E-03    -157.565E-03     314.146E-03    -156.582E-03     20.7859E-03     328.160E-03     55.4839E+06     19.4832E+06    -19.0974E+06    -44.0473E+06    -42.3309E+06    -20.8138E+06     19.4832E+06     3.51404E+06
            1148     9.47463E-03     8.55566E-03     4.07054E-03     310.570E-03    -152.635E-03    -157.935E-03    -153.745E-03     310.333E-03    -156.588E-03     20.9570E-03     322.508E-03     55.3901E+06     17.6196E+06    -19.9708E+06    -45.8416E+06    -45.4286E+06    -20.3838E+06     17.6196E+06    -1.38496E+06
            1149     8.71042E-03     7.69777E-03     4.07625E-03     309.213E-03    -151.980E-03    -157.232E-03    -152.042E-03     308.932E-03    -156.890E-03     22.7418E-03     319.719E-03     55.3549E+06     13.7490E+06    -19.2317E+06    -49.9700E+06    -48.7960E+06    -20.4056E+06     13.7490E+06     1.15741E+06
            1150     7.96779E-03     6.83805E-03     4.08984E-03     309.145E-03    -151.770E-03    -157.376E-03    -151.485E-03     308.860E-03    -157.376E-03     22.9235E-03     318.018E-03     48.8612E+06     3.23182E+06    -23.2735E+06    -53.0205E+06    -52.1574E+06    -24.1366E+06     3.23182E+06     2.67001E+06
            1151     7.25520E-03     5.97907E-03     4.10959E-03     310.313E-03    -152.342E-03    -157.971E-03    -152.074E-03     310.046E-03    -157.971E-03     22.2271E-03     317.649E-03     38.6803E+06    -14.7013E+06    -32.5481E+06    -58.5023E+06    -58.1481E+06    -32.9024E+06    -14.7013E+06    -655.502E+03
            1152     6.58017E-03     5.12022E-03     4.13304E-03     312.529E-03    -153.926E-03    -158.602E-03    -153.691E-03     312.294E-03    -158.602E-03     20.9171E-03     318.414E-03     31.3299E+06    -30.4676E+06    -39.8398E+06    -64.9540E+06    -63.1684E+06    -41.1380E+06    -30.9550E+06    -2.62777E+06
            1153     5.95800E-03     4.26527E-03     4.15996E-03     314.896E-03    -155.705E-03    -159.192E-03    -155.509E-03     314.701E-03    -159.192E-03     19.1285E-03     319.353E-03     23.6433E+06    -43.7781E+06    -52.2094E+06    -70.0044E+06    -66.5945E+06    -55.1320E+06    -44.2654E+06    -2.88876E+06
            1154     5.39883E-03     3.40873E-03     4.18664E-03     317.284E-03    -157.598E-03    -159.687E-03    -157.455E-03     317.142E-03    -159.687E-03     16.3149E-03     320.367E-03     25.4243E+06    -53.8886E+06    -67.5360E+06    -81.7033E+06    -71.7025E+06    -77.5368E+06    -53.8886E+06    -2.54220E+06
            1155     4.92671E-03     2.55696E-03     4.21123E-03     319.388E-03    -159.139E-03    -160.249E-03    -159.363E-03     319.300E-03    -159.936E-03     12.8895E-03     321.234E-03     34.9976E+06    -62.5208E+06    -76.3028E+06    -100.634E+06    -76.8677E+06    -100.069E+06    -62.5208E+06    -397.901E+03
            1156     4.56085E-03     1.70510E-03     4.23013E-03     320.090E-03    -159.713E-03    -160.377E-03    -160.150E-03     320.044E-03    -159.894E-03     9.07192E-03     320.870E-03     38.6158E+06    -72.4435E+06    -80.1240E+06    -114.096E+06    -79.8806E+06    -113.859E+06    -72.9238E+06     1.39260E+06
            1157     4.32920E-03     854.045E-06     4.24412E-03     320.060E-03    -159.426E-03    -160.635E-03    -160.252E-03     320.039E-03    -159.787E-03     6.13219E-03     320.206E-03     72.0785E+06    -84.9826E+06    -88.4584E+06    -158.568E+06    -87.3870E+06    -158.027E+06    -86.5955E+06     1.66463E+06
            1158     14.7399E-03     14.4227E-03     3.04112E-03     388.995E-03    -166.147E-03    -222.848E-03    -219.760E-03     385.907E-03    -166.147E-03     84.8999E-03     425.921E-03     133.586E+06     144.589E+06     53.2656E+06    -8.62901E+06    -7.29652E+06     51.9331E+06     144.589E+06    -6.51075E+06
            1159     13.9101E-03     13.6066E-03     2.89020E-03     370.361E-03    -162.998E-03    -207.364E-03    -205.726E-03     368.723E-03    -162.998E-03     55.9031E-03     398.502E-03     87.6909E+06     78.7266E+06     31.0642E+06    -21.2373E+06    -14.3156E+06     24.1425E+06     78.7266E+06     9.55854E+06
            1160     13.0951E-03     12.7873E-03     2.82267E-03     350.367E-03    -160.458E-03    -189.910E-03    -189.369E-03     349.826E-03    -160.458E-03     31.2793E-03     369.775E-03     54.0543E+06     27.4236E+06     7.23036E+06    -33.4802E+06    -20.9666E+06    -5.28323E+06     27.4236E+06     9.67463E+06
            1161     12.2721E-03     11.9551E-03     2.77102E-03     335.097E-03    -158.757E-03    -176.340E-03    -175.997E-03     334.754E-03    -158.757E-03     23.8315E-03     351.246E-03     44.4502E+06      8.6232E+06    -16.2669E+06    -41.8951E+06    -33.5251E+06    -24.6369E+06      8.6232E+06     1.39100E+06
            1162     11.4419E-03     11.1099E-03     2.73630E-03     323.021E-03    -157.661E-03    -165.360E-03    -164.975E-03     322.799E-03    -157.824E-03     20.1689E-03     335.599E-03     53.5612E+06     14.4469E+06    -20.4707E+06    -47.0094E+06    -39.7931E+06    -27.6869E+06     14.4469E+06     2.64690E+06
            1163     10.6173E-03     10.2629E-03     2.72020E-03     314.649E-03    -155.137E-03    -159.512E-03    -156.954E-03     314.453E-03    -157.499E-03     19.1862E-03     325.424E-03     55.3753E+06     21.2710E+06    -13.6531E+06    -42.4741E+06    -36.7244E+06    -19.4029E+06     21.2710E+06     -45.564E+03
            1164     9.78410E-03     9.40108E-03     2.71080E-03     307.998E-03    -150.245E-03    -157.753E-03    -150.066E-03     307.818E-03    -157.753E-03     18.1011E-03     316.495E-03     45.7169E+06     16.2785E+06    -13.5373E+06    -36.2574E+06    -35.2060E+06    -14.5887E+06     16.2785E+06     217.246E+03
            1165     8.95835E-03     8.53807E-03     2.71169E-03     305.529E-03    -146.946E-03    -158.583E-03    -146.745E-03     305.328E-03    -158.583E-03     19.0050E-03     312.997E-03     40.3736E+06     6.78143E+06    -16.7245E+06    -39.7156E+06    -39.3492E+06    -17.0909E+06     6.78143E+06    -604.988E+03
            1166     8.13904E-03     7.67231E-03     2.71654E-03     306.808E-03    -147.005E-03    -159.802E-03    -146.781E-03     306.583E-03    -159.802E-03     20.0558E-03     313.227E-03     39.3613E+06    -1.93006E+06    -20.5454E+06    -46.7299E+06    -45.7098E+06    -21.5655E+06    -1.93006E+06    -3.70348E+06
            1167     7.33516E-03     6.80914E-03     2.72768E-03     309.768E-03    -148.546E-03    -161.222E-03    -148.335E-03     309.557E-03    -161.222E-03     19.3101E-03     315.017E-03     34.3238E+06    -11.8410E+06    -25.1279E+06    -50.4259E+06    -49.4828E+06    -26.0709E+06    -11.8410E+06    -3.11654E+06
            1168     6.54991E-03     5.94753E-03     2.74375E-03     313.560E-03    -150.796E-03    -162.764E-03    -150.604E-03     313.368E-03    -162.764E-03     18.5202E-03     317.831E-03     24.8512E+06    -24.4636E+06    -29.8582E+06    -51.2808E+06    -50.8560E+06    -30.2830E+06    -24.4636E+06    -1.39492E+06
            1169     5.79061E-03     5.08942E-03     2.76206E-03     318.329E-03    -153.939E-03    -164.390E-03    -153.764E-03     318.154E-03    -164.390E-03     17.9281E-03     321.749E-03     17.3287E+06    -37.5334E+06    -38.4334E+06    -55.2822E+06    -53.8993E+06    -39.3289E+06    -38.0207E+06    -3.31745E+06
            1170     5.06556E-03     4.23253E-03     2.78309E-03     324.018E-03    -158.030E-03    -165.988E-03    -157.886E-03     323.874E-03    -165.988E-03     16.3352E-03     326.625E-03     17.5349E+06    -47.1084E+06    -50.2657E+06    -65.5184E+06    -57.0936E+06    -58.2032E+06    -47.5957E+06    -4.12701E+06
            1171     4.39361E-03     3.38239E-03     2.80414E-03     329.470E-03    -162.062E-03    -167.408E-03    -161.957E-03     329.365E-03    -167.408E-03     14.1042E-03     331.273E-03     28.3774E+06    -52.6824E+06    -57.7829E+06    -82.7715E+06    -59.0346E+06    -81.5198E+06    -52.6824E+06    -1.09086E+06
            1172     3.79267E-03     2.53313E-03     2.82269E-03     333.976E-03    -165.386E-03    -168.590E-03    -165.315E-03     333.905E-03    -168.590E-03     11.6572E-03     335.062E-03     46.7112E+06    -53.8557E+06    -60.7120E+06    -103.518E+06    -60.9514E+06    -103.278E+06    -53.8557E+06    -38.3884E+03
            1173     3.30391E-03     1.68748E-03     2.84046E-03     337.575E-03    -168.099E-03    -169.476E-03    -168.099E-03     337.536E-03    -169.437E-03     8.61418E-03     338.048E-03     56.0115E+06     -55.145E+06    -64.2761E+06    -114.877E+06    -63.9523E+06    -114.721E+06    -55.6253E+06     1.25271E+06
            1174     2.97444E-03     842.169E-06     2.85273E-03     339.963E-03    -169.619E-03    -170.344E-03    -169.753E-03     339.944E-03    -170.191E-03     5.71886E-03     340.062E-03     89.2539E+06    -60.7241E+06    -67.3571E+06    -152.746E+06    -66.3302E+06    -152.371E+06    -62.1258E+06     4.86573E+06
            1175     14.5061E-03     14.4249E-03     1.53223E-03     419.301E-03    -166.566E-03    -252.735E-03    -250.346E-03     416.912E-03    -166.566E-03     76.0314E-03     446.033E-03     135.902E+06     135.724E+06     42.6954E+06    -20.0733E+06    -17.6355E+06     40.2576E+06     135.724E+06    -4.22065E+06
            1176     13.7127E-03     13.6339E-03     1.46724E-03     375.937E-03    -162.375E-03    -213.562E-03    -212.973E-03     375.348E-03    -162.375E-03     34.8093E-03     392.123E-03     92.6404E+06     82.3206E+06     26.0649E+06    -24.4075E+06    -21.5766E+06     23.2340E+06     82.3206E+06     6.80722E+06
            1177     12.8778E-03     12.8013E-03     1.40131E-03     345.846E-03    -159.682E-03    -186.164E-03    -186.042E-03     345.724E-03    -159.682E-03     13.0703E-03     356.560E-03     57.5983E+06     38.6051E+06     6.52916E+06    -27.3976E+06    -22.3370E+06     1.46861E+06     38.6051E+06     6.96771E+06
            1178     12.0436E-03     11.9641E-03     1.38132E-03     327.279E-03    -158.279E-03    -169.001E-03    -168.957E-03     327.236E-03    -158.279E-03     6.52070E-03     335.518E-03     46.4635E+06     25.7835E+06    -614.310E+03    -27.2976E+06    -18.6123E+06    -9.29957E+06     25.7835E+06     8.62576E+06
            1179     11.1953E-03     11.1118E-03     1.36429E-03     314.866E-03    -155.151E-03    -159.715E-03    -156.987E-03     314.796E-03    -157.808E-03     9.53132E-03     321.723E-03     44.0519E+06     17.2817E+06    -6.22420E+06    -33.0870E+06    -23.5267E+06    -15.7845E+06     17.2817E+06     763.938E+03
            1180     10.3374E-03     10.2487E-03     1.35155E-03     307.876E-03    -149.808E-03    -158.068E-03    -149.716E-03     307.784E-03    -158.068E-03     11.0324E-03     313.922E-03     37.2623E+06     8.36746E+06    -11.3105E+06    -34.2583E+06    -29.0765E+06    -16.4923E+06     8.36746E+06    -8.83182E+06
            1181     9.48671E-03     9.38921E-03     1.35660E-03     304.755E-03    -145.830E-03    -158.925E-03    -145.731E-03     304.656E-03    -158.925E-03     12.3103E-03     309.669E-03     32.3133E+06     3.53718E+06    -13.2716E+06    -33.5546E+06    -32.4761E+06    -14.3502E+06     3.53718E+06    -2.96931E+06
            1182     8.62786E-03     8.52049E-03     1.35691E-03     304.510E-03    -144.262E-03    -160.248E-03    -144.155E-03     304.403E-03    -160.248E-03     12.9084E-03     308.728E-03     29.0370E+06    -3.58000E+06    -15.1135E+06    -36.2047E+06    -35.9628E+06    -15.3554E+06    -3.58000E+06     748.359E+03
            1183     7.77394E-03     7.65423E-03     1.35903E-03     306.518E-03    -144.568E-03    -161.951E-03    -144.472E-03     306.422E-03    -161.951E-03     11.7209E-03     309.774E-03     25.6447E+06    -13.3607E+06    -18.7331E+06    -40.9461E+06    -40.0515E+06    -19.6277E+06    -13.3607E+06    -1.83457E+06
            1184     6.92429E-03     6.78877E-03     1.36321E-03     310.490E-03    -146.528E-03    -163.962E-03    -146.450E-03     310.412E-03    -163.962E-03     10.7072E-03     313.017E-03     23.0425E+06    -21.7302E+06    -25.1346E+06    -46.2404E+06    -45.1609E+06    -25.5112E+06    -22.4331E+06    -4.32854E+06
            1185     6.08384E-03     5.92678E-03     1.37344E-03     316.108E-03    -149.940E-03    -166.168E-03    -149.871E-03     316.040E-03    -166.168E-03     10.2072E-03     318.093E-03     20.7477E+06    -28.0956E+06    -32.8973E+06    -50.5159E+06    -49.7707E+06    -30.4336E+06    -31.3044E+06    -3.77789E+06
            1186     5.25191E-03     5.06622E-03     1.38419E-03     322.819E-03    -154.357E-03    -168.462E-03    -154.292E-03     322.754E-03    -168.462E-03     9.99997E-03     324.306E-03     13.2432E+06    -38.5081E+06    -41.3192E+06    -52.5943E+06    -52.1039E+06    -39.2567E+06    -41.0610E+06    -2.43553E+06
            1187     4.43712E-03     4.21249E-03     1.39390E-03     330.257E-03    -159.490E-03    -170.767E-03    -159.436E-03     330.203E-03    -170.767E-03     9.25466E-03     331.307E-03     16.5815E+06    -47.4573E+06    -50.8421E+06    -65.1940E+06    -54.9895E+06    -60.9996E+06    -47.5042E+06    -1.36790E+06
            1188     3.64363E-03     3.36164E-03     1.40550E-03     337.690E-03    -164.744E-03    -172.946E-03    -164.702E-03     337.648E-03    -172.946E-03     8.26384E-03     338.368E-03     33.8412E+06    -50.7606E+06    -57.4758E+06    -87.1613E+06    -58.9464E+06    -85.6907E+06    -50.7606E+06    -1.92993E+06
            1189     2.88846E-03     2.51640E-03     1.41808E-03     344.550E-03    -169.668E-03    -174.882E-03    -169.639E-03     344.521E-03    -174.882E-03     6.80460E-03     344.908E-03     51.6713E+06    -51.4987E+06    -60.8851E+06    -107.003E+06    -61.9130E+06    -105.975E+06    -51.4987E+06     850.327E+03
            1190     2.19932E-03     1.67365E-03     1.42684E-03     350.520E-03    -174.123E-03    -176.396E-03    -174.109E-03     350.505E-03    -176.396E-03     4.61658E-03     350.557E-03     54.5109E+06    -53.1255E+06    -68.0525E+06    -113.069E+06    -68.6810E+06    -112.441E+06    -53.1255E+06     1.09242E+06
            1191     1.65982E-03     837.375E-06     1.43311E-03     354.636E-03    -176.767E-03    -177.869E-03    -177.460E-03     354.632E-03    -177.172E-03     2.57647E-03     354.497E-03     82.1433E+06    -65.3504E+06    -75.4434E+06    -151.085E+06    -76.0313E+06    -150.497E+06    -65.3504E+06    -3.31176E+06
            1192     77.8146E-03     847.143E-06     77.8100E-03     336.747E-03    -167.313E-03    -169.435E-03    -168.854E-03     336.728E-03    -167.874E-03     4.63727E-03     337.163E-03     110.599E+06    -94.0895E+06    -98.4793E+06    -206.685E+06    -97.9215E+06    -206.040E+06    -95.2925E+06     5.45363E+06
            1193     77.8325E-03     1.69180E-03     77.8141E-03     336.601E-03    -167.700E-03    -168.901E-03    -168.326E-03     336.589E-03    -168.263E-03     3.60654E-03     337.162E-03     81.8591E+06    -90.9768E+06    -100.555E+06    -176.846E+06    -101.292E+06    -176.110E+06    -90.9768E+06     3.00689E+06
            1194     77.8594E-03     2.53549E-03     77.8181E-03     335.807E-03    -167.397E-03    -168.410E-03    -167.599E-03     335.790E-03    -168.192E-03     5.63021E-03     336.953E-03     75.4506E+06    -85.9855E+06    -99.2105E+06    -166.697E+06    -99.7485E+06    -166.159E+06    -85.9855E+06    -915.623E+03
            1195     77.8996E-03     3.38042E-03     77.8262E-03     334.099E-03    -165.970E-03    -168.129E-03    -166.163E-03     334.073E-03    -167.910E-03     6.92862E-03     335.927E-03     64.3726E+06    -74.5234E+06    -92.7829E+06    -145.482E+06    -93.1063E+06    -145.158E+06    -74.5234E+06    -1.16971E+06
            1196     77.9596E-03     4.23033E-03     77.8447E-03     333.116E-03    -165.570E-03    -167.546E-03    -165.520E-03     333.067E-03    -167.546E-03     9.68305E-03     335.908E-03     55.1467E+06    -60.8169E+06    -87.7014E+06    -123.435E+06    -88.0574E+06    -123.079E+06    -60.8169E+06     1.66223E+06
            1197     78.0367E-03     5.07751E-03     77.8714E-03     333.630E-03    -166.049E-03    -167.580E-03    -166.223E-03     333.543E-03    -167.320E-03     13.0813E-03     337.695E-03     47.4796E+06    -42.8269E+06    -75.8870E+06    -96.4097E+06    -80.2984E+06    -91.9984E+06    -42.8269E+06     4.60011E+06
            1198     78.1251E-03     5.92428E-03     77.9002E-03     333.927E-03    -166.403E-03    -167.525E-03    -166.518E-03     333.782E-03    -167.264E-03     16.8554E-03     339.277E-03     52.6257E+06    -18.2589E+06    -45.5912E+06    -76.8165E+06    -70.8691E+06    -51.5386E+06    -18.2589E+06     7.41544E+06
            1199     78.2241E-03     6.76925E-03     77.9307E-03     332.782E-03    -165.606E-03    -167.176E-03    -165.398E-03     332.574E-03    -167.176E-03     20.2768E-03     339.434E-03     62.1988E+06    -915.812E+03    -17.4233E+06    -69.2710E+06    -66.8146E+06    -19.8797E+06    -915.812E+03     6.34403E+06
            1200     78.3448E-03     7.61985E-03     77.9733E-03     331.827E-03    -164.825E-03    -167.002E-03    -164.523E-03     331.525E-03    -167.002E-03     24.3041E-03     339.520E-03     68.0833E+06     10.6288E+06    -4.91931E+06    -63.7782E+06    -61.0990E+06    -7.59848E+06     10.6288E+06     9.99651E+06
            1201     78.4822E-03     8.46997E-03     78.0238E-03     332.666E-03    -165.420E-03    -167.246E-03    -165.346E-03     332.214E-03    -166.868E-03     29.8831E-03     342.071E-03     69.3410E+06     24.4613E+06     3.32635E+06    -52.7772E+06    -50.1653E+06     714.420E+03     24.4613E+06     8.73591E+06
            1202     78.6288E-03     9.31225E-03     78.0755E-03     332.296E-03    -165.148E-03    -167.148E-03    -164.851E-03     331.622E-03    -166.771E-03     36.3409E-03     343.636E-03     67.7120E+06     34.2791E+06     6.03497E+06    -42.8271E+06    -41.6137E+06     4.82155E+06     34.2791E+06     5.35273E+06
            1203     78.7931E-03     10.1672E-03     78.1343E-03     332.289E-03    -165.253E-03    -167.036E-03    -164.514E-03     331.189E-03    -166.675E-03     46.3372E-03     345.963E-03     73.2122E+06     45.2952E+06     7.30424E+06    -38.9766E+06    -36.2729E+06     4.60052E+06     45.2952E+06     10.5171E+06
            1204     78.9921E-03     11.0161E-03     78.2202E-03     335.264E-03    -166.379E-03    -168.885E-03    -167.321E-03     333.995E-03    -166.674E-03     50.3182E-03     351.569E-03     73.6632E+06     50.5114E+06     4.99194E+06    -34.3313E+06    -32.5229E+06     3.18360E+06     50.5114E+06     3.23409E+06
            1205     79.1766E-03     11.8591E-03     78.2834E-03     338.785E-03    -166.368E-03    -172.417E-03    -170.720E-03     337.596E-03    -166.877E-03     49.0903E-03     357.391E-03     66.5414E+06     48.3786E+06     6.84669E+06    -28.0315E+06    -25.6825E+06     4.49773E+06     48.3786E+06    -4.17224E+06
            1206     79.3893E-03     12.7016E-03     78.3666E-03     342.338E-03    -166.764E-03    -175.574E-03    -173.211E-03     340.483E-03    -167.272E-03     60.8533E-03     365.341E-03     65.5665E+06     46.4657E+06     10.1739E+06    -28.9080E+06    -25.7919E+06     7.05779E+06     46.4657E+06     1.45313E+06
            1207     79.6721E-03     13.5377E-03     78.5136E-03     342.170E-03    -166.777E-03    -175.393E-03    -171.275E-03     339.002E-03    -167.727E-03     79.9966E-03     371.505E-03     84.2906E+06     71.2191E+06     30.7675E+06    -25.4811E+06    -23.7708E+06     29.0572E+06     71.2191E+06     1.42462E+06
            1208     79.9447E-03     14.3882E-03     78.6393E-03     335.276E-03    -164.233E-03    -171.043E-03    -163.565E-03     331.552E-03    -167.987E-03     86.0692E-03     363.593E-03     128.909E+06     139.973E+06     78.5233E+06    -8.08399E+06    -7.22073E+06     77.6600E+06     139.973E+06    -1.16392E+06
            1209     79.2129E-03     841.417E-06     79.2084E-03     338.161E-03    -167.278E-03    -170.884E-03    -168.186E-03     338.147E-03    -169.961E-03     836.441E-06     338.598E-03     103.169E+06    -110.915E+06    -112.956E+06    -215.086E+06    -112.222E+06    -214.465E+06    -112.270E+06     951.845E+03
            1210     79.2288E-03     1.69048E-03     79.2107E-03     335.556E-03    -166.992E-03    -168.563E-03    -166.988E-03     335.552E-03    -168.563E-03     1.38368E-03     336.157E-03     80.5731E+06    -96.6357E+06    -103.620E+06    -180.106E+06    -103.784E+06    -179.273E+06    -97.3054E+06     5.02528E+06
            1211     79.2593E-03     2.53801E-03     79.2187E-03     335.839E-03    -167.477E-03    -168.362E-03    -167.681E-03     335.824E-03    -168.143E-03     4.97899E-03     337.024E-03     73.8703E+06    -81.9331E+06    -100.067E+06    -162.783E+06    -101.283E+06    -161.568E+06    -81.9331E+06     4.36548E+06
            1212     79.2989E-03     3.38236E-03     79.2268E-03     336.713E-03    -167.789E-03    -168.924E-03    -168.509E-03     336.675E-03    -168.166E-03     8.43432E-03     338.694E-03     66.3679E+06    -71.4437E+06    -98.2977E+06    -146.139E+06    -99.3205E+06    -145.116E+06    -71.4437E+06     2.05944E+06
            1213     79.3527E-03     4.22516E-03     79.2402E-03     335.898E-03    -167.157E-03    -168.741E-03    -167.621E-03     335.824E-03    -168.202E-03     12.0185E-03     338.964E-03     55.1720E+06    -59.7412E+06    -92.8415E+06    -122.263E+06    -93.1708E+06    -121.934E+06    -59.7412E+06     1.06239E+06
            1214     79.4298E-03     5.07256E-03     79.2676E-03     334.070E-03    -166.047E-03    -168.023E-03    -165.932E-03     333.955E-03    -168.023E-03     15.0710E-03     338.274E-03     47.5451E+06    -47.6054E+06    -86.6471E+06    -100.070E+06    -87.9561E+06    -98.7612E+06    -47.6054E+06     843.589E+03
            1215     79.5149E-03     5.92112E-03     79.2941E-03     333.776E-03    -166.010E-03    -167.766E-03    -165.824E-03     333.590E-03    -167.766E-03     19.0382E-03     339.370E-03     49.5016E+06    -29.5245E+06    -57.7904E+06    -83.2637E+06    -78.2701E+06    -62.7839E+06    -29.5245E+06     3.97994E+06
            1216     79.6203E-03     6.76831E-03     79.3321E-03     334.288E-03    -166.659E-03    -167.629E-03    -166.397E-03     334.027E-03    -167.629E-03     22.7646E-03     341.165E-03     60.9672E+06    -5.24488E+06    -18.0723E+06    -71.2237E+06    -66.3369E+06    -22.9591E+06    -5.24488E+06     9.51678E+06
            1217     79.7279E-03     7.61229E-03     79.3637E-03     333.414E-03    -165.902E-03    -167.512E-03    -165.512E-03     333.025E-03    -167.512E-03     27.3559E-03     341.554E-03     66.9456E+06     8.82646E+06    -3.94838E+06    -63.3723E+06    -59.9748E+06    -7.34594E+06     8.82646E+06     9.31236E+06
            1218     79.8663E-03     8.46080E-03     79.4169E-03     332.355E-03    -165.038E-03    -167.317E-03    -164.505E-03     331.821E-03    -167.317E-03     32.3851E-03     342.008E-03     65.0544E+06     18.7457E+06     1.50839E+06    -53.1294E+06    -51.4162E+06    -204.818E+03     18.7457E+06     5.41814E+06
            1219     80.0123E-03     9.31592E-03     79.4681E-03     333.843E-03    -165.744E-03    -168.098E-03    -166.021E-03     333.237E-03    -167.215E-03     34.7175E-03     345.006E-03     68.4444E+06     34.8376E+06     6.26039E+06    -42.9185E+06    -41.7714E+06     5.11327E+06     34.8376E+06     5.77677E+06
            1220     80.1734E-03     10.1585E-03     79.5272E-03     334.781E-03    -166.565E-03    -168.216E-03    -166.710E-03     333.954E-03    -167.245E-03     40.2102E-03     348.531E-03     73.8870E+06     49.7524E+06     9.36258E+06    -35.4830E+06    -33.2414E+06     7.12091E+06     49.7524E+06     5.33975E+06
            1221     80.3673E-03     11.0078E-03     79.6099E-03     335.531E-03    -167.030E-03    -168.501E-03    -167.202E-03     334.528E-03    -167.325E-03     44.7443E-03     350.469E-03     77.2594E+06     63.0042E+06     14.0880E+06    -25.9058E+06    -23.6086E+06     11.7907E+06     63.0042E+06     2.74375E+06
            1222     80.5688E-03     11.8543E-03     79.6919E-03     341.684E-03    -167.562E-03    -174.122E-03    -172.764E-03     340.326E-03    -167.562E-03     51.9526E-03     358.314E-03     75.6153E+06     55.1709E+06     2.89560E+06    -31.5049E+06    -29.9196E+06     1.31032E+06     55.1709E+06     4.62525E+06
            1223     80.7910E-03     12.6819E-03     79.7895E-03     344.062E-03    -167.942E-03    -176.120E-03    -173.671E-03     341.613E-03    -167.942E-03     69.7678E-03     366.099E-03     63.7653E+06     46.6964E+06     5.77634E+06    -26.5553E+06    -24.6470E+06     3.86805E+06     46.6964E+06     6.27349E+06
            1224     81.0342E-03     13.5323E-03     79.8962E-03     338.485E-03    -167.248E-03    -171.237E-03    -166.535E-03     334.733E-03    -168.198E-03     86.6491E-03     367.715E-03     78.0259E+06     77.4617E+06     37.1804E+06    -12.2958E+06    -10.5140E+06     35.3987E+06     77.4617E+06     894.318E+03
            1225     81.3131E-03     14.3907E-03     80.0296E-03     332.448E-03    -163.920E-03    -168.527E-03    -160.680E-03     328.875E-03    -168.195E-03     83.3371E-03     360.842E-03     131.404E+06     139.442E+06     77.8300E+06    -11.3552E+06    -10.4293E+06     76.9040E+06     139.442E+06    -1.28847E+06
            1226     80.6142E-03     845.308E-06     80.6097E-03     338.204E-03    -167.774E-03    -170.429E-03    -167.771E-03     338.200E-03    -170.429E-03    -685.276E-06     338.636E-03     103.762E+06    -106.952E+06    -111.620E+06    -212.889E+06    -111.106E+06    -212.733E+06    -107.622E+06    -1.78428E+06
            1227     80.6266E-03     1.68870E-03     80.6089E-03     336.057E-03    -167.424E-03    -168.632E-03    -167.420E-03     336.053E-03    -168.632E-03     2.40405E-03     336.621E-03     80.6861E+06    -101.600E+06    -107.444E+06    -185.000E+06    -107.114E+06    -184.660E+06    -102.269E+06    -1.60103E+06
            1228     80.6543E-03     2.53535E-03     80.6145E-03     335.632E-03    -167.419E-03    -168.213E-03    -167.398E-03     335.612E-03    -168.213E-03     5.61593E-03     336.708E-03     76.8529E+06    -87.5406E+06    -98.4829E+06    -168.931E+06    -99.4528E+06    -167.961E+06    -87.5406E+06     3.36919E+06
            1229     80.6985E-03     3.38270E-03     80.6276E-03     336.737E-03    -168.009E-03    -168.728E-03    -168.503E-03     336.692E-03    -168.189E-03     9.21868E-03     338.723E-03     69.2454E+06    -69.8972E+06    -95.4689E+06    -146.933E+06    -96.7462E+06    -145.656E+06    -69.8972E+06     6.33149E+06
            1230     80.7556E-03     4.22674E-03     80.6449E-03     336.761E-03    -167.920E-03    -168.841E-03    -168.379E-03     336.681E-03    -168.302E-03     12.5124E-03     339.873E-03     57.6187E+06    -55.1218E+06    -92.1136E+06    -120.724E+06    -93.2224E+06    -119.616E+06    -55.1218E+06     3.92780E+06
            1231     80.8199E-03     5.07170E-03     80.6606E-03     335.338E-03    -167.083E-03    -168.255E-03    -166.935E-03     335.190E-03    -168.255E-03     16.9833E-03     339.685E-03     51.0866E+06    -43.2809E+06    -85.5655E+06     -99.623E+06    -88.3979E+06    -96.7906E+06    -43.2809E+06      2.6315E+06
            1232     80.9087E-03     5.91878E-03     80.6919E-03     334.024E-03    -165.998E-03    -168.026E-03    -165.779E-03     333.805E-03    -168.026E-03     20.8503E-03     339.678E-03     49.1637E+06    -31.7598E+06    -66.2593E+06    -86.2479E+06    -83.3357E+06    -69.1715E+06    -31.7598E+06     2.67543E+06
            1233     81.0081E-03     6.76726E-03     80.7250E-03     333.843E-03    -166.059E-03    -167.783E-03    -165.758E-03     333.542E-03    -167.783E-03     24.4210E-03     340.646E-03     57.5966E+06    -15.3289E+06    -29.9131E+06    -77.7107E+06    -74.1497E+06    -33.4741E+06    -15.3289E+06     7.07115E+06
            1234     81.1246E-03     7.61591E-03     80.7663E-03     334.749E-03    -166.797E-03    -167.953E-03    -166.652E-03     334.336E-03    -167.684E-03     28.4277E-03     343.142E-03     66.0302E+06     8.24324E+06    -2.68274E+06    -62.3431E+06    -60.0946E+06    -4.93122E+06     8.24324E+06     4.32827E+06
            1235     81.2474E-03     8.46295E-03     80.8054E-03     335.454E-03    -166.761E-03    -168.693E-03    -167.215E-03     334.918E-03    -167.703E-03     32.4829E-03     345.619E-03     70.0860E+06     27.5798E+06     5.39339E+06    -50.7812E+06    -50.1222E+06     4.73431E+06     27.5798E+06     1.84804E+06
            1236     81.3998E-03     9.30521E-03     80.8662E-03     336.554E-03    -167.179E-03    -169.375E-03    -168.120E-03     335.891E-03    -167.771E-03     36.3563E-03     348.431E-03     73.7153E+06     36.6081E+06     5.69842E+06    -47.3337E+06    -46.6547E+06     5.01941E+06     36.6081E+06     5.04533E+06
            1237     81.5664E-03     10.1495E-03     80.9325E-03     337.965E-03    -167.906E-03    -170.059E-03    -169.147E-03     337.055E-03    -167.908E-03     42.3009E-03     352.728E-03     73.0890E+06     45.8180E+06     9.75779E+06    -38.1517E+06    -37.2140E+06     8.82007E+06     45.8180E+06     1.93128E+06
            1238     81.7418E-03     10.9929E-03     80.9992E-03     338.571E-03    -168.069E-03    -170.502E-03    -169.262E-03     337.331E-03    -168.069E-03     49.6559E-03     354.544E-03     72.8695E+06     48.4229E+06     6.21159E+06    -35.4238E+06    -32.6881E+06     3.47585E+06     48.4229E+06     6.11172E+06
            1239     81.9560E-03     11.8388E-03     81.0964E-03     337.580E-03    -166.471E-03    -171.109E-03    -167.722E-03     335.884E-03    -168.162E-03     58.0212E-03     354.886E-03     70.5479E+06     49.7800E+06     540.408E+03    -30.7044E+06    -27.9333E+06    -2.23066E+06     49.7800E+06     8.71278E+06
            1240     82.1812E-03     12.6966E-03     81.1945E-03     337.406E-03    -166.434E-03    -170.972E-03    -166.756E-03     334.880E-03    -168.124E-03     70.7772E-03     360.574E-03     62.7585E+06     49.1696E+06     7.17567E+06    -22.4738E+06    -19.6518E+06     4.35369E+06     49.1696E+06     3.21173E+06
            1241     82.4108E-03     13.5403E-03     81.2908E-03     338.117E-03    -168.150E-03    -169.967E-03    -166.301E-03     334.452E-03    -168.150E-03     85.5183E-03     369.392E-03     81.3854E+06     78.9987E+06     36.3471E+06    -14.7627E+06    -12.1594E+06     33.7438E+06     78.9987E+06     4.41242E+06
            1242     82.6825E-03     14.3824E-03     81.4220E-03     334.464E-03    -165.493E-03    -168.970E-03    -162.710E-03     330.930E-03    -168.220E-03     83.2481E-03     363.555E-03     136.447E+06     147.506E+06     85.4727E+06    -8.79620E+06    -8.09788E+06     84.7744E+06     147.506E+06     3.25519E+06
            1243     82.0132E-03     844.812E-06     82.0088E-03     334.287E-03    -165.986E-03    -168.302E-03    -167.833E-03     334.277E-03    -166.444E-03     791.646E-06     334.651E-03     112.529E+06    -101.404E+06    -105.595E+06    -215.876E+06    -105.406E+06    -215.495E+06    -101.973E+06     3.37354E+06
            1244     82.0272E-03     1.69201E-03     82.0097E-03     336.014E-03    -167.161E-03    -168.853E-03    -168.679E-03     335.996E-03    -167.317E-03     5.47608E-03     336.561E-03     82.9928E+06    -97.1939E+06    -106.552E+06    -184.289E+06    -106.673E+06    -183.598E+06    -97.7632E+06     2.68584E+06
            1245     82.0506E-03     2.53698E-03     82.0114E-03     337.027E-03    -167.712E-03    -169.315E-03    -169.115E-03     336.988E-03    -167.874E-03     8.56171E-03     338.189E-03     78.9283E+06    -91.0749E+06    -104.358E+06    -175.647E+06    -104.711E+06    -175.294E+06    -91.0749E+06     121.349E+03
            1246     82.0985E-03     3.38071E-03     82.0289E-03     336.595E-03    -167.861E-03    -168.735E-03    -168.396E-03     336.545E-03    -168.149E-03     10.0636E-03     338.584E-03     70.8665E+06    -76.8364E+06    -94.3354E+06    -154.545E+06    -94.9799E+06    -153.900E+06    -76.8364E+06     3.39750E+06
            1247     82.1513E-03     4.22777E-03     82.0425E-03     335.725E-03    -167.549E-03    -168.177E-03    -167.483E-03     335.660E-03    -168.177E-03     11.3487E-03     338.731E-03     60.1911E+06    -58.2808E+06    -87.7227E+06    -126.241E+06    -89.1288E+06    -124.835E+06    -58.2808E+06     6.69023E+06
            1248     82.2186E-03     5.07391E-03     82.0618E-03     335.545E-03    -167.423E-03    -168.122E-03    -167.272E-03     335.394E-03    -168.122E-03     17.0216E-03     340.030E-03     55.5501E+06    -36.9382E+06    -76.8690E+06    -99.6778E+06    -82.9438E+06    -93.6030E+06    -36.9382E+06     7.66514E+06
            1249     82.3013E-03     5.91898E-03     82.0882E-03     335.131E-03    -167.062E-03    -168.068E-03    -166.864E-03     334.897E-03    -168.033E-03     21.6257E-03     340.729E-03     55.5673E+06    -21.5649E+06    -59.8032E+06    -84.6415E+06    -79.2678E+06    -65.1770E+06    -21.5649E+06     7.90282E+06
            1250     82.3978E-03     6.76622E-03     82.1195E-03     335.065E-03    -166.796E-03    -168.269E-03    -166.828E-03     334.749E-03    -167.921E-03     25.0537E-03     342.046E-03     59.8895E+06    -8.80151E+06    -30.7556E+06    -74.9683E+06    -73.8912E+06    -31.8327E+06    -8.80151E+06     3.37719E+06
            1251     82.5143E-03     7.61309E-03     82.1623E-03     336.200E-03    -167.434E-03    -168.766E-03    -167.914E-03     335.835E-03    -167.922E-03     27.0766E-03     344.566E-03     66.9883E+06     8.32018E+06    -6.86895E+06    -64.7415E+06    -64.1912E+06    -7.41930E+06     8.32018E+06     1.60647E+06
            1252     82.6428E-03     8.45617E-03     82.2091E-03     337.657E-03    -168.075E-03    -169.582E-03    -169.049E-03     337.123E-03    -168.075E-03     32.2950E-03     347.912E-03     75.0743E+06     24.6894E+06    -1.71229E+06    -59.9162E+06    -58.9946E+06    -2.63384E+06     24.6894E+06     4.79211E+06
            1253     82.7912E-03     9.30135E-03     82.2670E-03     337.574E-03    -168.217E-03    -169.357E-03    -168.591E-03     336.810E-03    -168.219E-03     39.2161E-03     349.813E-03     76.0467E+06     39.7564E+06     7.47903E+06    -47.0162E+06    -46.4296E+06     6.89241E+06     39.7564E+06     1.91311E+06
            1254     82.9511E-03     10.1502E-03     82.3278E-03     338.435E-03    -168.293E-03    -170.142E-03    -169.020E-03     337.315E-03    -168.295E-03     47.1727E-03     353.384E-03     72.1468E+06     40.8797E+06     6.92074E+06    -41.9184E+06    -40.1768E+06     5.17913E+06     40.8797E+06     4.27232E+06
            1255     83.1418E-03     10.9932E-03     82.4119E-03     339.792E-03    -168.406E-03    -171.386E-03    -169.857E-03     338.262E-03    -168.406E-03     55.7969E-03     357.028E-03     68.5099E+06     38.9019E+06     1.67691E+06    -39.9960E+06    -37.0752E+06    -1.24389E+06     38.9019E+06     9.55295E+06
            1256     83.3336E-03     11.8359E-03     82.4888E-03     336.349E-03    -166.619E-03    -169.730E-03    -166.150E-03     334.583E-03    -168.434E-03     59.4707E-03     354.669E-03     64.5059E+06     44.7786E+06     3.03513E+06    -29.1211E+06    -27.2375E+06     1.15155E+06     44.7786E+06     6.34597E+06
            1257     83.5453E-03     12.6849E-03     82.5767E-03     333.756E-03    -165.407E-03    -168.349E-03    -162.988E-03     331.233E-03    -168.245E-03     69.9831E-03     357.091E-03     66.1356E+06     51.8193E+06     9.44571E+06    -23.9988E+06    -21.9708E+06     7.41777E+06     51.8193E+06     2.22157E+06
            1258     83.7985E-03     13.5381E-03     82.6977E-03     335.066E-03    -166.465E-03    -168.600E-03    -163.502E-03     331.582E-03    -168.079E-03     82.9777E-03     366.256E-03     89.4070E+06     83.2821E+06     37.8338E+06    -19.4858E+06    -17.3255E+06     35.6736E+06     83.2821E+06     1.05649E+06
            1259     84.0476E-03     14.3953E-03     82.8057E-03     335.051E-03    -166.563E-03    -168.488E-03    -163.601E-03     331.672E-03    -168.071E-03     81.7946E-03     363.784E-03     137.795E+06     146.047E+06     86.8157E+06    -11.4236E+06    -10.7600E+06     86.1522E+06     146.047E+06     2.11308E+06
            1260     83.4082E-03     852.729E-06     83.4039E-03     330.242E-03    -162.863E-03    -167.379E-03    -165.603E-03     330.224E-03    -164.621E-03     1.97828E-03     330.687E-03     122.618E+06    -102.697E+06    -105.327E+06    -226.604E+06    -104.222E+06    -226.242E+06    -104.163E+06     3.58378E+06
            1261     83.4226E-03     1.69656E-03     83.4053E-03     334.998E-03    -165.802E-03    -169.196E-03    -169.168E-03     334.969E-03    -165.802E-03     5.95952E-03     335.623E-03     91.2431E+06    -94.9655E+06    -101.163E+06    -188.901E+06    -101.299E+06    -188.195E+06    -95.5348E+06     6.37676E+06
            1262     83.4555E-03     2.53858E-03     83.4169E-03     337.169E-03    -167.146E-03    -170.023E-03    -169.977E-03     337.123E-03    -167.146E-03     9.58989E-03     338.473E-03     86.1738E+06    -81.9609E+06    -98.1939E+06    -174.654E+06    -99.0768E+06    -173.772E+06    -81.9609E+06     6.41757E+06
            1263     83.4962E-03     3.38207E-03     83.4277E-03     336.784E-03    -167.589E-03    -169.195E-03    -168.919E-03     336.722E-03    -167.803E-03     10.9512E-03     338.686E-03     77.2720E+06    -71.1330E+06    -95.5779E+06    -157.394E+06    -96.2566E+06    -156.715E+06    -71.1330E+06     4.57653E+06
            1264     83.5472E-03     4.22731E-03     83.4401E-03     336.010E-03    -167.466E-03    -168.544E-03    -167.952E-03     335.935E-03    -167.983E-03     12.1494E-03     338.936E-03     65.3378E+06    -58.3643E+06    -87.6136E+06    -132.779E+06    -88.0811E+06    -132.311E+06    -58.3643E+06     3.73981E+06
            1265     83.6131E-03     5.07434E-03     83.4590E-03     335.582E-03    -167.346E-03    -168.236E-03    -167.453E-03     335.458E-03    -168.005E-03     15.4042E-03     339.916E-03     59.0934E+06    -38.9680E+06    -74.6716E+06    -107.016E+06    -78.9127E+06    -102.774E+06    -38.9680E+06     6.35771E+06
            1266     83.6966E-03     5.92195E-03     83.4869E-03     336.152E-03    -167.681E-03    -168.471E-03    -167.915E-03     335.952E-03    -168.037E-03     19.9243E-03     341.459E-03     62.1990E+06    -13.4943E+06    -46.0909E+06    -83.6678E+06    -69.6388E+06    -60.1199E+06    -13.4943E+06     12.3449E+06
            1267     83.7926E-03     6.76606E-03     83.5190E-03     337.313E-03    -168.136E-03    -169.178E-03    -168.877E-03     337.012E-03    -168.136E-03     24.4407E-03     344.634E-03     68.6307E+06     1.61035E+06    -20.1038E+06    -74.1081E+06    -69.7239E+06    -24.4880E+06     1.61035E+06     9.35757E+06
            1268     83.9100E-03     7.60883E-03     83.5643E-03     337.305E-03    -168.173E-03    -169.132E-03    -168.643E-03     336.903E-03    -168.260E-03     28.4727E-03     346.245E-03     71.8893E+06     9.39038E+06    -11.0293E+06    -70.3957E+06    -69.3995E+06    -12.0254E+06     9.39038E+06     6.11438E+06
            1269     84.0349E-03     8.45544E-03     83.6085E-03     337.107E-03    -168.238E-03    -168.869E-03    -168.144E-03     336.495E-03    -168.351E-03     34.7841E-03     347.616E-03     74.6333E+06     24.1818E+06    -2.18844E+06    -60.0288E+06    -59.0054E+06    -3.21186E+06     24.1818E+06     6.29531E+06
            1270     84.1836E-03     9.30093E-03     83.6682E-03     337.384E-03    -168.376E-03    -169.008E-03    -168.137E-03     336.539E-03    -168.401E-03     41.2051E-03     349.589E-03     76.4982E+06     37.3422E+06     3.54509E+06    -50.0929E+06    -49.5030E+06     2.95527E+06     37.3422E+06     1.42535E+06
            1271     84.3390E-03     10.1429E-03     83.7269E-03     338.456E-03    -168.432E-03    -170.024E-03    -168.681E-03     337.113E-03    -168.432E-03     51.1959E-03     353.491E-03     74.2537E+06      39.786E+06     1.42442E+06    -45.7797E+06    -43.9908E+06    -364.469E+03      39.786E+06     851.402E+03
            1272     84.5305E-03     10.9907E-03     83.8130E-03     338.249E-03    -168.212E-03    -170.036E-03    -168.170E-03     336.628E-03    -168.458E-03     57.0871E-03     355.488E-03     68.3889E+06     44.5090E+06     4.57551E+06    -34.3165E+06    -32.2690E+06     2.52801E+06     44.5090E+06     3.76245E+06
            1273     84.7196E-03     11.8399E-03     83.8882E-03     336.109E-03    -167.368E-03    -168.741E-03    -165.990E-03     334.392E-03    -168.403E-03     58.5147E-03     353.992E-03     65.4505E+06     45.5130E+06     3.82083E+06    -29.8684E+06    -28.9687E+06     2.92113E+06     45.5130E+06     2.47117E+06
            1274     84.9232E-03     12.6877E-03     83.9700E-03     334.445E-03    -166.219E-03    -168.226E-03    -163.511E-03     331.738E-03    -168.226E-03     72.6566E-03     356.659E-03     70.9048E+06     51.6472E+06     12.3699E+06    -29.7328E+06    -28.6590E+06     11.2960E+06     51.6472E+06     3.66327E+06
            1275     85.1632E-03     13.5426E-03     84.0796E-03     334.204E-03    -166.169E-03    -168.035E-03    -162.636E-03     330.671E-03    -168.035E-03     83.7020E-03     363.373E-03     90.6914E+06     80.7232E+06     38.9713E+06    -23.0884E+06    -22.0088E+06     37.8917E+06     80.7232E+06     3.92454E+06
            1276     85.4236E-03     14.3898E-03     84.2029E-03     333.890E-03    -165.925E-03    -167.965E-03    -162.740E-03     330.705E-03    -167.965E-03     79.3157E-03     361.077E-03     133.685E+06     140.042E+06     83.6432E+06    -12.5791E+06    -12.2184E+06     83.2826E+06     140.042E+06     610.565E+03
            1277     84.8001E-03     847.352E-06     84.7958E-03     331.832E-03    -164.249E-03    -167.583E-03    -165.614E-03     331.819E-03    -166.205E-03     3.56751E-03     332.384E-03     124.590E+06    -101.933E+06    -104.393E+06    -227.730E+06    -103.271E+06    -227.661E+06    -103.124E+06    -623.692E+03
            1278     84.8174E-03     1.69473E-03     84.8005E-03     334.042E-03    -165.977E-03    -168.065E-03    -167.844E-03     334.020E-03    -166.176E-03     4.84695E-03     334.738E-03     100.338E+06    -95.6075E+06    -100.641E+06    -198.267E+06    -100.803E+06    -198.105E+06    -95.6075E+06     2.02491E+06
            1279     84.8574E-03     2.54063E-03     84.8193E-03     335.116E-03    -166.803E-03    -168.314E-03    -168.237E-03     335.085E-03    -166.848E-03     7.65166E-03     336.370E-03     95.3235E+06    -81.5500E+06    -94.5808E+06     -182.34E+06    -95.4807E+06    -181.440E+06    -81.5500E+06     7.56161E+06
            1280     84.8921E-03     3.38625E-03     84.8245E-03     335.710E-03    -167.234E-03    -168.476E-03    -168.371E-03     335.650E-03    -167.279E-03     10.2070E-03     337.610E-03     82.7881E+06    -63.8827E+06    -89.7178E+06    -155.909E+06    -90.9330E+06    -154.694E+06    -63.8827E+06     8.32026E+06
            1281     84.9484E-03     4.23049E-03     84.8430E-03     336.951E-03    -167.640E-03    -169.311E-03    -169.221E-03     336.862E-03    -167.640E-03     13.4418E-03     339.919E-03     72.9740E+06    -49.3543E+06     -84.971E+06    -133.120E+06    -86.0237E+06    -132.067E+06    -49.3543E+06     5.74679E+06
            1282     85.0081E-03     5.07312E-03     84.8566E-03     337.831E-03    -167.817E-03    -170.014E-03    -169.721E-03     337.710E-03    -167.990E-03     15.4140E-03     342.015E-03     64.6200E+06    -39.9746E+06    -80.9991E+06    -114.061E+06    -82.5543E+06    -112.506E+06    -39.9746E+06     5.48875E+06
            1283     85.0912E-03     5.91800E-03     84.8852E-03     337.896E-03    -168.100E-03    -169.797E-03    -169.443E-03     337.715E-03    -168.272E-03     19.0975E-03     343.269E-03     61.5879E+06    -23.0589E+06    -60.2077E+06    -91.1141E+06    -75.0195E+06    -76.3023E+06    -23.0589E+06     9.20832E+06
            1284     85.1930E-03     6.76224E-03     84.9242E-03     337.198E-03    -168.019E-03    -169.179E-03    -168.488E-03     336.920E-03    -168.431E-03     23.5024E-03     344.447E-03     68.3191E+06     2.40075E+06    -18.7068E+06    -70.5720E+06    -63.7772E+06    -25.5016E+06     2.40075E+06     13.4497E+06
            1285     85.3022E-03     7.60838E-03     84.9622E-03     336.774E-03    -167.972E-03    -168.802E-03    -167.875E-03     336.348E-03    -168.472E-03     29.2110E-03     345.654E-03     73.6898E+06     18.0092E+06     1.70406E+06    -62.0804E+06    -59.0229E+06    -1.35341E+06     18.0092E+06     12.6866E+06
            1286     85.4289E-03     8.45358E-03     85.0096E-03     336.744E-03    -168.246E-03    -168.498E-03    -167.652E-03     336.115E-03    -168.463E-03     35.4126E-03     347.353E-03     74.0204E+06     27.9276E+06     4.84743E+06    -54.8162E+06    -52.8375E+06     2.86870E+06     27.9276E+06     8.78961E+06
            1287     85.5724E-03     9.30036E-03     85.0655E-03     336.271E-03    -167.666E-03    -168.605E-03    -166.992E-03     335.407E-03    -168.415E-03     41.5594E-03     348.514E-03     74.7316E+06     35.0163E+06     3.29737E+06    -50.0857E+06    -49.0644E+06     2.27604E+06     35.0163E+06     5.16656E+06
            1288     85.7322E-03     10.1502E-03     85.1293E-03     336.620E-03    -167.351E-03    -169.269E-03    -166.742E-03     335.086E-03    -168.344E-03     54.5697E-03     352.161E-03     77.2705E+06     45.9049E+06     6.20155E+06    -43.1189E+06    -42.3155E+06     5.39819E+06     45.9049E+06     1.64882E+06
            1289     85.9190E-03     10.9932E-03     85.2128E-03     336.309E-03    -167.347E-03    -168.963E-03    -166.194E-03     334.420E-03    -168.226E-03     61.4152E-03     353.856E-03     75.9325E+06     48.4783E+06     4.77575E+06    -39.0381E+06    -36.7800E+06     2.51762E+06     48.4783E+06    -1.54302E+06
            1290     86.0998E-03     11.8398E-03     85.2819E-03     335.051E-03    -166.885E-03    -168.166E-03    -165.066E-03     333.122E-03    -168.056E-03     61.7919E-03     352.941E-03     70.6061E+06     43.1469E+06    -452.598E+03    -38.1703E+06    -34.4654E+06    -4.15743E+06     43.1469E+06     1.65071E+06
            1291     86.3013E-03     12.6923E-03     85.3629E-03     335.409E-03    -167.015E-03    -168.394E-03    -164.681E-03     332.556E-03    -167.875E-03     74.8549E-03     357.463E-03     65.9163E+06     46.5139E+06     8.73413E+06    -28.6702E+06    -26.3325E+06     6.39650E+06     46.5139E+06     3.49755E+06
            1292     86.5374E-03     13.5380E-03     85.4719E-03     335.261E-03    -167.100E-03    -168.160E-03    -163.474E-03     331.225E-03    -167.751E-03     89.2739E-03     363.873E-03     81.1353E+06     77.5700E+06     38.6486E+06    -14.8140E+06    -14.3584E+06     38.1930E+06     77.5700E+06     2.41639E+06
            1293     86.7959E-03     14.3926E-03     85.5943E-03     335.209E-03    -166.113E-03    -169.096E-03    -163.514E-03     331.270E-03    -167.756E-03     88.1459E-03     362.576E-03     132.334E+06     144.923E+06     90.4693E+06    -5.92023E+06    -5.69580E+06     90.2449E+06     144.923E+06     2.57712E+06
            1294     86.1881E-03     844.568E-06     86.1840E-03     335.833E-03    -167.088E-03    -168.745E-03    -168.209E-03     335.817E-03    -167.608E-03     3.06959E-03     336.366E-03     124.826E+06    -102.502E+06    -106.759E+06    -229.376E+06    -106.594E+06    -229.246E+06    -102.796E+06     828.616E+03
            1295     86.2172E-03     1.69147E-03     86.2006E-03     334.117E-03    -166.544E-03    -167.573E-03    -166.552E-03     334.095E-03    -167.543E-03     6.43094E-03     334.787E-03     104.342E+06    -95.7258E+06    -103.776E+06    -203.789E+06    -103.849E+06    -203.716E+06    -95.7258E+06     1.86238E+06
            1296     86.2485E-03     2.53839E-03     86.2112E-03     333.887E-03    -166.639E-03    -167.247E-03    -166.649E-03     333.865E-03    -167.217E-03     6.40220E-03     335.026E-03     98.4888E+06    -86.3788E+06    -98.4551E+06    -190.330E+06    -98.7122E+06    -190.073E+06    -86.3788E+06     3.43342E+06
            1297     86.2899E-03     3.38607E-03     86.2234E-03     334.723E-03    -167.098E-03    -167.625E-03    -167.486E-03     334.682E-03    -167.197E-03     8.47981E-03     336.651E-03     84.5392E+06    -71.6954E+06    -90.1805E+06    -163.576E+06    -91.0644E+06    -162.692E+06    -71.6954E+06     6.95567E+06
            1298     86.3452E-03     4.23187E-03     86.2414E-03     336.837E-03    -167.499E-03    -169.338E-03    -169.259E-03     336.758E-03    -167.499E-03     12.5044E-03     339.773E-03     76.7056E+06    -49.6327E+06    -82.5788E+06    -136.689E+06    -85.3777E+06    -133.891E+06    -49.6327E+06     10.7984E+06
            1299     86.4114E-03     5.07613E-03     86.2622E-03     339.242E-03    -168.013E-03    -171.228E-03    -171.096E-03     339.109E-03    -168.013E-03     16.2904E-03     343.421E-03     70.9294E+06    -34.5308E+06    -80.9423E+06    -115.566E+06    -84.6609E+06    -111.847E+06    -34.5308E+06     10.5027E+06
            1300     86.4933E-03     5.91485E-03     86.2908E-03     338.753E-03    -168.427E-03    -170.326E-03    -170.109E-03     338.536E-03    -168.427E-03     20.8513E-03     344.511E-03     59.2194E+06    -24.9710E+06    -74.0600E+06    -90.4401E+06    -78.6013E+06    -85.8987E+06    -24.9710E+06     4.24715E+06
            1301     86.5847E-03     6.76070E-03     86.3203E-03     336.670E-03    -168.046E-03    -168.624E-03    -167.803E-03     336.332E-03    -168.528E-03     25.9333E-03     343.713E-03     54.9650E+06    -5.89127E+06    -34.7265E+06    -64.6203E+06    -60.7003E+06    -38.6465E+06    -5.89127E+06     7.79786E+06
            1302     86.6973E-03     7.60823E-03     86.3628E-03     336.259E-03    -167.759E-03    -168.501E-03    -167.310E-03     335.777E-03    -168.467E-03     31.0694E-03     344.683E-03     63.7054E+06     12.1993E+06     88.9658E+03    -56.1042E+06    -51.9463E+06    -4.06901E+06     12.1993E+06     14.5239E+06
            1303     86.8219E-03     8.45414E-03     86.4093E-03     336.707E-03    -168.112E-03    -168.595E-03    -167.600E-03     336.043E-03    -168.442E-03     36.4924E-03     347.086E-03     72.5969E+06     28.6512E+06     10.3260E+06    -51.1831E+06    -47.8845E+06     7.02737E+06     28.6512E+06     13.8520E+06
            1304     86.9623E-03     9.30007E-03     86.4636E-03     335.631E-03    -167.110E-03    -168.521E-03    -166.426E-03     334.828E-03    -168.402E-03     40.1354E-03     347.426E-03     78.4450E+06     44.3637E+06     13.1302E+06    -44.6067E+06    -41.9844E+06     10.5079E+06     44.3637E+06     11.2946E+06
            1305     87.1148E-03     10.1470E-03     86.5218E-03     333.405E-03    -165.210E-03    -168.196E-03    -163.807E-03     332.003E-03    -168.196E-03     51.6255E-03     349.588E-03     81.5350E+06     53.2980E+06     12.4176E+06    -40.5431E+06    -39.2124E+06     11.0869E+06     53.2980E+06     7.31462E+06
            1306     87.3045E-03     11.0025E-03     86.6085E-03     331.793E-03    -163.968E-03    -167.826E-03    -162.167E-03     329.993E-03    -167.826E-03     59.4216E-03     350.279E-03     82.2843E+06     52.1881E+06     7.94431E+06    -42.6045E+06    -39.5654E+06     4.90522E+06     52.1881E+06     4.11202E+06
            1307     87.4828E-03     11.8540E-03     86.6760E-03     332.927E-03    -165.342E-03    -167.585E-03    -163.343E-03     330.819E-03    -167.475E-03     64.1329E-03     351.821E-03     76.4234E+06      46.812E+06     3.49679E+06    -41.2406E+06     -35.476E+06    -2.26782E+06      46.812E+06     2.24951E+06
            1308     87.6839E-03     12.6990E-03     86.7595E-03     334.762E-03    -167.020E-03    -167.742E-03    -164.378E-03     331.600E-03    -167.222E-03     79.0845E-03     359.999E-03     59.7223E+06     44.0408E+06     6.74272E+06    -24.4437E+06    -21.2303E+06     3.52933E+06     44.0408E+06     44.8572E+03
            1309     87.9147E-03     13.5532E-03     86.8637E-03     335.416E-03    -166.612E-03    -168.803E-03    -164.010E-03     331.151E-03    -167.140E-03     92.0266E-03     367.495E-03     75.2640E+06     75.2270E+06     35.0076E+06    -10.8701E+06    -10.6800E+06     34.8175E+06     75.2270E+06    -204.348E+03
            1310     88.1632E-03     14.4076E-03     86.9780E-03     340.361E-03    -166.968E-03    -173.393E-03    -168.716E-03     336.082E-03    -167.366E-03     93.0366E-03     369.741E-03     135.596E+06     149.018E+06     92.9442E+06    -5.51392E+06    -5.45149E+06     92.8817E+06     149.018E+06     1.68338E+06
            1311     87.5899E-03     844.585E-06     87.5859E-03     335.961E-03    -166.863E-03    -169.099E-03    -168.747E-03     335.930E-03    -167.183E-03     5.27430E-03     336.436E-03     132.459E+06    -102.901E+06    -109.017E+06    -238.281E+06    -106.626E+06    -238.156E+06    -105.417E+06     3.77033E+06
            1312     87.6120E-03     1.69034E-03     87.5957E-03     335.605E-03    -167.017E-03    -168.588E-03    -167.757E-03     335.573E-03    -167.816E-03     7.76226E-03     336.136E-03     107.483E+06    -98.0192E+06    -103.840E+06    -208.249E+06    -104.111E+06    -207.962E+06    -98.0357E+06     4.25440E+06
            1313     87.6429E-03     2.53843E-03     87.6061E-03     334.769E-03    -167.032E-03    -167.738E-03    -167.040E-03     334.743E-03    -167.703E-03     7.05212E-03     335.830E-03     98.6336E+06    -88.0021E+06    -101.143E+06    -192.358E+06    -101.391E+06    -192.110E+06    -88.0021E+06     3.65764E+06
            1314     87.6867E-03     3.38342E-03     87.6214E-03     335.491E-03    -167.463E-03    -168.028E-03    -167.796E-03     335.452E-03    -167.656E-03     8.88425E-03     337.412E-03     86.9486E+06    -74.6184E+06    -95.7176E+06    -170.014E+06    -95.9791E+06    -169.752E+06    -74.6184E+06     3.62035E+06
            1315     87.7399E-03     4.22963E-03     87.6379E-03     336.296E-03    -167.440E-03    -168.857E-03    -168.418E-03     336.210E-03    -167.793E-03     12.6936E-03     339.285E-03     77.2530E+06    -59.1107E+06    -86.9684E+06    -146.062E+06    -88.8180E+06    -144.212E+06    -59.1107E+06     7.32840E+06
            1316     87.8161E-03     5.07224E-03     87.6695E-03     336.750E-03    -167.348E-03    -169.402E-03    -168.596E-03     336.577E-03    -167.980E-03     18.3727E-03     340.953E-03     67.9106E+06    -37.5342E+06    -74.3244E+06    -115.009E+06    -78.5807E+06    -110.753E+06    -37.5342E+06     10.4384E+06
            1317     87.8909E-03     5.91939E-03     87.6913E-03     337.681E-03    -167.892E-03    -169.790E-03    -169.256E-03     337.427E-03    -168.171E-03     22.5295E-03     343.265E-03     60.0883E+06    -20.0334E+06    -64.4977E+06    -87.5787E+06    -71.5906E+06    -80.4858E+06    -20.0334E+06     9.37107E+06
            1318     87.9814E-03     6.76411E-03     87.7210E-03     337.577E-03    -168.236E-03    -169.342E-03    -168.925E-03     337.230E-03    -168.305E-03     26.3821E-03     344.276E-03     55.4053E+06    -11.6697E+06    -46.0692E+06    -73.7763E+06    -69.3076E+06    -50.5379E+06    -11.6697E+06     8.49306E+06
            1319     88.0901E-03     7.60845E-03     87.7609E-03     336.207E-03    -167.727E-03    -168.480E-03    -167.376E-03     335.708E-03    -168.332E-03     31.5181E-03     344.606E-03     61.6487E+06     6.79373E+06    -9.41234E+06    -60.9295E+06    -58.2632E+06    -12.0786E+06     6.79373E+06     11.1483E+06
            1320     88.2144E-03     8.45581E-03     87.8082E-03     335.898E-03    -167.485E-03    -168.413E-03    -166.877E-03     335.172E-03    -168.295E-03     38.0383E-03     346.690E-03     74.7539E+06     27.4719E+06     10.0781E+06    -54.2697E+06    -51.5415E+06     7.34988E+06     27.4719E+06     12.8651E+06
            1321     88.3557E-03     9.30136E-03     87.8647E-03     335.819E-03    -167.401E-03    -168.418E-03    -166.760E-03     335.004E-03    -168.244E-03     40.4321E-03     347.683E-03     79.7015E+06     43.7947E+06     15.2642E+06    -46.0791E+06    -43.0356E+06     12.2207E+06     43.7947E+06     13.2375E+06
            1322     88.4971E-03     10.1507E-03     87.9131E-03     333.912E-03    -165.760E-03    -168.152E-03    -164.676E-03     332.774E-03    -168.097E-03     46.7467E-03     349.750E-03     82.5622E+06     50.9885E+06     14.8940E+06    -43.2519E+06    -37.5959E+06     9.23802E+06     50.9885E+06     15.0513E+06
            1323     88.6778E-03     11.0008E-03     87.9928E-03     330.414E-03    -162.651E-03    -167.763E-03    -161.389E-03     329.152E-03    -167.763E-03     49.1854E-03     347.733E-03     80.7281E+06     53.9276E+06     11.6894E+06    -38.3397E+06    -32.7448E+06     6.09455E+06     53.9276E+06     12.8534E+06
            1324     88.8571E-03     11.8570E-03     88.0625E-03     329.260E-03    -161.917E-03    -167.343E-03    -160.447E-03     327.790E-03    -167.343E-03     52.2054E-03     346.597E-03     72.0584E+06     62.8796E+06     17.0404E+06    -19.6839E+06    -16.7715E+06     14.1280E+06     62.8796E+06     2.36143E+06
            1325     89.0685E-03     12.7125E-03     88.1566E-03     331.631E-03    -164.658E-03    -166.973E-03    -162.456E-03     329.428E-03    -166.973E-03     64.5098E-03     355.068E-03     66.2316E+06     51.5006E+06     11.2589E+06    -24.7059E+06    -23.3240E+06     9.87699E+06     51.5006E+06    -3.18678E+06
            1326     89.2823E-03     13.5618E-03     88.2463E-03     337.583E-03    -166.740E-03    -170.843E-03    -167.553E-03     334.525E-03    -166.972E-03     77.3550E-03     368.528E-03     84.6263E+06     69.7946E+06     29.3051E+06    -27.3098E+06    -27.1705E+06     29.1659E+06     69.7946E+06    -1.00422E+06
            1327     89.5518E-03     14.4035E-03     88.3859E-03     342.257E-03    -167.429E-03    -174.828E-03    -171.371E-03     338.800E-03    -167.429E-03     83.9474E-03     370.680E-03     137.149E+06     147.665E+06     91.0249E+06    -8.63285E+06    -8.55678E+06     90.9489E+06     147.665E+06     149.805E+03
            1328     88.9903E-03     850.245E-06     88.9862E-03     334.621E-03    -166.193E-03    -168.428E-03    -168.402E-03     334.595E-03    -166.193E-03     6.67783E-03     335.083E-03     140.547E+06    -101.253E+06    -105.981E+06    -244.080E+06    -103.517E+06    -244.028E+06    -103.769E+06     1.76782E+06
            1329     89.0120E-03     1.69240E-03     88.9959E-03     336.235E-03    -167.457E-03    -168.778E-03    -168.752E-03     336.209E-03    -167.457E-03     6.67741E-03     336.724E-03     114.663E+06    -97.1045E+06    -101.865E+06    -214.034E+06    -102.101E+06    -213.781E+06    -97.1210E+06     3.99603E+06
            1330     89.0393E-03     2.53551E-03     89.0032E-03     336.114E-03    -167.706E-03    -168.408E-03    -168.227E-03     336.073E-03    -167.846E-03     8.48987E-03     337.172E-03     102.615E+06    -87.1454E+06    -99.8999E+06    -195.342E+06    -100.432E+06    -194.809E+06    -87.1454E+06     6.09935E+06
            1331     89.0837E-03     3.38280E-03     89.0195E-03     336.028E-03    -167.435E-03    -168.593E-03    -167.999E-03     335.955E-03    -167.956E-03     11.8142E-03     337.889E-03     89.5263E+06    -74.4502E+06    -97.2886E+06    -172.951E+06    -97.7632E+06    -172.477E+06    -74.4502E+06     5.38264E+06
            1332     89.1414E-03     4.22541E-03     89.0412E-03     334.895E-03    -166.664E-03    -168.231E-03    -166.871E-03     334.767E-03    -167.896E-03     15.5894E-03     337.825E-03     78.2898E+06    -63.1090E+06    -91.3256E+06    -151.495E+06    -91.6478E+06    -151.172E+06    -63.1090E+06     4.17541E+06
            1333     89.2047E-03     5.07665E-03     89.0601E-03     334.409E-03    -166.597E-03    -167.812E-03    -166.458E-03     334.184E-03    -167.727E-03     21.0989E-03     338.879E-03     66.4143E+06    -46.7554E+06    -78.9189E+06    -122.791E+06    -81.0818E+06    -120.628E+06    -46.7554E+06     6.30647E+06
            1334     89.2909E-03     5.92341E-03     89.0942E-03     336.306E-03    -167.457E-03    -168.850E-03    -168.278E-03     336.014E-03    -167.736E-03     24.2601E-03     342.011E-03     63.0268E+06    -22.3879E+06    -62.2035E+06    -94.6578E+06    -72.5584E+06    -84.3030E+06    -22.3879E+06     11.5793E+06
            1335     89.3817E-03     6.76453E-03     89.1254E-03     337.442E-03    -167.908E-03    -169.533E-03    -169.174E-03     337.083E-03    -167.908E-03     26.8347E-03     344.420E-03     63.5492E+06    -6.39548E+06    -43.0405E+06    -78.9394E+06    -72.1008E+06    -49.8791E+06    -6.39548E+06     11.0175E+06
            1336     89.4823E-03     7.61043E-03     89.1580E-03     336.621E-03    -167.718E-03    -168.903E-03    -168.056E-03     336.083E-03    -168.027E-03     32.6394E-03     345.677E-03     68.2665E+06     8.64632E+06    -12.0079E+06    -66.7175E+06    -64.5801E+06    -14.1452E+06     8.64632E+06     10.5038E+06
            1337     89.6061E-03     8.45713E-03     89.2061E-03     335.729E-03    -167.420E-03    -168.309E-03    -166.956E-03     334.986E-03    -168.030E-03     38.5549E-03     347.023E-03     75.7056E+06     23.6719E+06     8.43294E+06    -58.3993E+06    -55.9088E+06     5.94239E+06     23.6719E+06     12.5792E+06
            1338     89.7444E-03     9.30634E-03     89.2606E-03     335.652E-03    -167.610E-03    -168.042E-03    -166.870E-03     334.857E-03    -167.987E-03     39.9241E-03     347.723E-03     80.0614E+06     34.0950E+06     14.0039E+06    -53.9098E+06    -51.1188E+06     11.2129E+06     34.0950E+06     13.4086E+06
            1339     89.8897E-03     10.1493E-03     89.3149E-03     335.523E-03    -167.514E-03    -168.008E-03    -166.547E-03     334.482E-03    -167.935E-03     45.2490E-03     350.419E-03     78.6813E+06     44.0690E+06     20.2586E+06    -43.5451E+06    -37.7215E+06     14.4350E+06     44.0690E+06     16.3950E+06
            1340     90.0554E-03     10.9955E-03     89.3816E-03     334.737E-03    -165.968E-03    -168.769E-03    -165.605E-03     333.461E-03    -167.856E-03     50.0034E-03     351.954E-03     72.3768E+06     51.5817E+06     15.1767E+06     -30.612E+06    -25.4465E+06     10.0112E+06     51.5817E+06     12.0349E+06
            1341     90.2309E-03     11.8432E-03     89.4503E-03     333.318E-03    -164.195E-03    -169.123E-03    -164.360E-03     332.108E-03    -167.748E-03     48.6218E-03     351.097E-03     73.2982E+06     59.1572E+06     12.7631E+06    -24.9100E+06    -22.3814E+06     10.2344E+06     59.1572E+06     8.21545E+06
            1342     90.4310E-03     12.6967E-03     89.5352E-03     333.589E-03    -165.483E-03    -168.106E-03    -164.418E-03     332.042E-03    -167.624E-03     54.9483E-03     354.456E-03     76.4614E+06     62.5478E+06     16.7353E+06    -25.2872E+06    -23.7173E+06     15.1654E+06     62.5478E+06     4.22045E+06
            1343     90.6686E-03     13.5448E-03     89.6512E-03     338.474E-03    -167.548E-03    -170.926E-03    -167.954E-03     335.633E-03    -167.680E-03     74.4115E-03     366.895E-03     93.5409E+06     82.6161E+06     37.1394E+06    -24.3288E+06    -24.0709E+06     36.8815E+06     82.6161E+06    -3.65654E+06
            1344     90.9353E-03     14.3850E-03     89.7903E-03     337.740E-03    -166.477E-03    -171.263E-03    -166.424E-03     334.346E-03    -167.922E-03     82.3103E-03     365.109E-03     139.600E+06     144.785E+06     89.2278E+06    -14.0198E+06    -13.8163E+06     89.0243E+06     144.785E+06    -2.80670E+06
            1345     90.3860E-03     843.448E-06     90.3821E-03     335.436E-03    -166.781E-03    -168.655E-03    -167.741E-03     335.416E-03    -167.676E-03     6.00658E-03     335.891E-03     138.567E+06    -105.149E+06    -108.273E+06    -245.243E+06    -108.191E+06    -245.231E+06    -105.243E+06     149.196E+03
            1346     90.4109E-03     1.69202E-03     90.3951E-03     334.804E-03    -166.749E-03    -168.055E-03    -167.277E-03     334.783E-03    -167.505E-03     6.24049E-03     335.338E-03     117.264E+06    -98.7091E+06    -104.029E+06    -218.525E+06    -104.058E+06    -218.497E+06    -98.7091E+06     1.41596E+06
            1347     90.4372E-03     2.53931E-03     90.4015E-03     335.760E-03    -167.472E-03    -168.288E-03    -168.158E-03     335.700E-03    -167.542E-03     10.6311E-03     336.901E-03     107.799E+06    -89.7520E+06    -98.8164E+06    -201.760E+06     -99.153E+06    -201.424E+06    -89.7520E+06     4.25603E+06
            1348     90.4844E-03     3.38142E-03     90.4212E-03     335.253E-03    -167.081E-03    -168.173E-03    -167.516E-03     335.167E-03    -167.652E-03     13.0356E-03     337.033E-03     92.1892E+06    -75.5726E+06    -93.0227E+06    -174.955E+06    -93.6696E+06    -174.308E+06    -75.5726E+06     6.85598E+06
            1349     90.5316E-03     4.23284E-03     90.4326E-03     334.168E-03    -166.520E-03    -167.648E-03    -166.463E-03     334.051E-03    -167.588E-03     14.9460E-03     336.895E-03     83.7773E+06    -58.8652E+06    -90.2643E+06    -153.402E+06    -90.9743E+06    -152.692E+06    -58.8652E+06     6.56021E+06
            1350     90.6004E-03     5.07719E-03     90.4581E-03     334.547E-03    -166.920E-03    -167.627E-03    -166.850E-03     334.332E-03    -167.481E-03     20.5032E-03     338.951E-03     74.7411E+06    -44.1471E+06    -86.3439E+06    -130.029E+06    -87.1956E+06    -129.178E+06    -44.1471E+06     5.58141E+06
            1351     90.6848E-03     5.92244E-03     90.4912E-03     334.486E-03    -166.785E-03    -167.702E-03    -166.760E-03     334.194E-03    -167.434E-03     24.1664E-03     340.038E-03     65.7063E+06    -24.9506E+06    -70.9322E+06    -99.4330E+06    -77.6220E+06    -92.7432E+06    -24.9506E+06     7.89491E+06
            1352     90.7788E-03     6.77259E-03     90.5259E-03     335.264E-03    -166.848E-03    -168.416E-03    -167.453E-03     334.886E-03    -167.433E-03     27.4029E-03     342.229E-03     63.4521E+06    -8.13294E+06    -46.3831E+06    -79.8702E+06    -72.0209E+06    -54.2323E+06    -8.13294E+06     11.4528E+06
            1353     90.8783E-03     7.61604E-03     90.5586E-03     336.836E-03    -167.528E-03    -169.309E-03    -168.779E-03     336.307E-03    -167.528E-03     32.5509E-03     345.925E-03     66.1737E+06     2.11981E+06    -20.2335E+06    -71.6094E+06    -67.6240E+06    -24.2189E+06     2.11981E+06     12.9681E+06
            1354     90.9991E-03     8.46040E-03     90.6049E-03     336.835E-03    -167.651E-03    -169.184E-03    -168.424E-03     336.101E-03    -167.677E-03     38.2480E-03     348.267E-03      70.801E+06     18.4171E+06     5.35857E+06    -57.8694E+06    -54.5603E+06     2.04951E+06     18.4171E+06     13.9325E+06
            1355     91.1338E-03     9.30430E-03     90.6575E-03     335.943E-03    -167.632E-03    -168.311E-03    -167.363E-03     335.146E-03    -167.783E-03     39.9243E-03     348.110E-03     80.4748E+06     37.7636E+06     19.8279E+06    -49.8505E+06    -46.0234E+06     16.0008E+06     37.7636E+06     15.6099E+06
            1356     91.2795E-03     10.1549E-03     90.7129E-03     335.737E-03    -167.676E-03    -168.061E-03    -166.953E-03     334.755E-03    -167.801E-03     43.9291E-03     349.863E-03     82.2090E+06     48.2079E+06     23.0112E+06    -43.4134E+06    -40.7012E+06     20.2990E+06     48.2079E+06     8.48569E+06
            1357     91.4417E-03     11.0040E-03     90.7772E-03     337.650E-03    -167.849E-03    -169.802E-03    -168.482E-03     336.330E-03    -167.849E-03     51.3558E-03     355.326E-03     76.6400E+06     49.9518E+06     13.9319E+06    -37.4119E+06    -35.9443E+06     12.4642E+06     49.9518E+06     2.70931E+06
            1358     91.6262E-03     11.8460E-03     90.8572E-03     339.442E-03    -168.031E-03    -171.411E-03    -170.004E-03     338.035E-03    -168.031E-03     53.3147E-03     358.534E-03     78.7700E+06     53.9194E+06     10.9594E+06    -36.8585E+06    -33.6785E+06     7.77940E+06     53.9194E+06     10.1088E+06
            1359     91.8088E-03     12.6833E-03     90.9284E-03     338.620E-03    -168.180E-03    -170.440E-03    -168.276E-03     336.485E-03    -168.209E-03     64.5390E-03     361.695E-03     80.0695E+06     67.9619E+06     26.8275E+06    -23.7813E+06    -19.1039E+06     22.1501E+06     67.9619E+06     12.8074E+06
            1360     92.0460E-03     13.5326E-03     91.0458E-03     336.975E-03    -167.558E-03    -169.417E-03    -164.840E-03     333.085E-03    -168.245E-03     87.3626E-03     369.038E-03     96.5082E+06     94.7679E+06     50.4321E+06    -15.2463E+06    -12.5552E+06     47.7409E+06     94.7679E+06     4.02547E+06
            1361     92.3129E-03     14.3911E-03     91.1843E-03     333.310E-03    -164.517E-03    -168.792E-03    -161.256E-03     329.420E-03    -168.164E-03     86.8681E-03     362.681E-03     142.710E+06     145.840E+06     88.8684E+06    -16.5339E+06    -16.3244E+06     88.6589E+06     145.840E+06    -2.56343E+06
            1362     91.7881E-03     845.213E-06     91.7842E-03     336.289E-03    -167.385E-03    -168.904E-03    -167.834E-03     336.273E-03    -168.439E-03     4.79447E-03     336.690E-03     140.792E+06    -103.854E+06    -108.699E+06    -246.976E+06    -107.595E+06    -246.947E+06    -104.987E+06     560.591E+03
            1363     91.7995E-03     1.69258E-03     91.7839E-03     334.088E-03    -166.429E-03    -167.659E-03    -166.403E-03     334.062E-03    -167.659E-03     6.15141E-03     334.703E-03     116.856E+06    -101.113E+06    -106.574E+06    -220.591E+06    -105.562E+06    -220.563E+06    -102.152E+06     1.09223E+06
            1364     91.8387E-03     2.53836E-03     91.8036E-03     334.142E-03    -166.653E-03    -167.489E-03    -166.816E-03     334.086E-03    -167.270E-03     10.4185E-03     335.399E-03     108.987E+06    -91.8998E+06    -100.790E+06    -205.031E+06    -100.902E+06    -204.919E+06    -91.8998E+06    -224.862E+03
            1365     91.8777E-03     3.38736E-03     91.8152E-03     334.563E-03    -166.806E-03    -167.757E-03    -167.273E-03     334.502E-03    -167.229E-03     10.9638E-03     336.342E-03     96.9893E+06    -78.1572E+06    -94.0986E+06    -181.976E+06    -94.5092E+06    -181.566E+06    -78.1572E+06     3.06090E+06
            1366     91.9277E-03     4.22952E-03     91.8304E-03     335.194E-03    -167.159E-03    -168.035E-03    -167.746E-03     335.094E-03    -167.349E-03     13.7123E-03     337.979E-03     89.8111E+06    -58.7503E+06    -88.0344E+06    -159.050E+06    -89.0365E+06    -158.047E+06    -58.7503E+06     7.98023E+06
            1367     91.9952E-03     5.07703E-03     91.8550E-03     335.033E-03    -167.196E-03    -167.837E-03    -167.388E-03     334.850E-03    -167.461E-03     18.8975E-03     339.261E-03     80.6746E+06    -37.9666E+06    -79.8575E+06    -130.347E+06    -82.2425E+06    -127.963E+06    -37.9666E+06     10.0050E+06
            1368     92.0784E-03     5.92485E-03     91.8876E-03     333.711E-03    -166.307E-03    -167.404E-03    -166.090E-03     333.494E-03    -167.404E-03     20.6014E-03     338.834E-03     70.6437E+06    -27.5588E+06    -75.0475E+06    -107.744E+06    -80.5640E+06    -102.228E+06    -27.5588E+06     11.2016E+06
            1369     92.1653E-03     6.77155E-03     91.9162E-03     333.611E-03    -165.977E-03    -167.634E-03    -166.017E-03     333.298E-03    -167.281E-03     24.6019E-03     340.097E-03     65.7273E+06    -8.84199E+06    -48.2162E+06    -83.1974E+06    -70.6696E+06    -60.7439E+06    -8.84199E+06     13.9469E+06
            1370     92.2799E-03     7.61909E-03     91.9649E-03     335.267E-03    -166.790E-03    -168.478E-03    -167.552E-03     334.814E-03    -167.261E-03     30.1740E-03     343.395E-03     67.6003E+06     7.49398E+06    -17.5239E+06    -68.6807E+06    -64.0726E+06    -22.1320E+06     7.49398E+06     12.8568E+06
            1371     92.3891E-03     8.46317E-03     92.0006E-03     336.714E-03    -167.367E-03    -169.347E-03    -168.653E-03     336.019E-03    -167.367E-03     37.0291E-03     347.463E-03     71.8949E+06     12.5640E+06    -4.20848E+06    -66.1152E+06    -63.4649E+06    -6.85879E+06     12.5640E+06     11.7847E+06
            1372     92.5310E-03     9.30979E-03     92.0614E-03     336.745E-03    -167.499E-03    -169.246E-03    -168.422E-03     335.970E-03    -167.548E-03     39.4335E-03     348.654E-03     76.0352E+06     31.2214E+06     11.0885E+06    -52.5860E+06    -49.5262E+06     8.02869E+06     31.2214E+06     12.6991E+06
            1373     92.6622E-03     10.1525E-03     92.1044E-03     337.817E-03    -167.721E-03    -170.097E-03    -169.082E-03     336.852E-03    -167.769E-03     43.5102E-03     351.621E-03     88.9735E+06     55.6313E+06     26.3692E+06    -44.2181E+06    -40.1898E+06     22.3408E+06     55.6313E+06     10.5084E+06
            1374     92.8355E-03     10.9954E-03     92.1820E-03     339.635E-03    -168.019E-03    -171.616E-03    -170.385E-03     338.403E-03    -168.019E-03     49.9356E-03     356.340E-03     93.6274E+06     67.1906E+06     27.2308E+06    -39.1450E+06    -36.4647E+06     24.5505E+06     67.1906E+06     5.78867E+06
            1375     93.0121E-03     11.8418E-03     92.2552E-03     338.935E-03    -167.703E-03    -171.233E-03    -169.480E-03     337.657E-03    -168.177E-03     50.8522E-03     356.322E-03     80.7766E+06     52.1394E+06     10.9221E+06    -40.8084E+06    -39.0299E+06     9.14354E+06     52.1394E+06     616.888E+03
            1376     93.2068E-03     12.6915E-03     92.3387E-03     337.388E-03    -167.407E-03    -169.981E-03    -167.034E-03     335.266E-03    -168.232E-03     64.1220E-03     359.779E-03     73.0627E+06     52.5820E+06     21.3216E+06    -30.8560E+06    -26.6364E+06     17.1020E+06     52.5820E+06     5.44219E+06
            1377     93.4179E-03     13.5382E-03     92.4317E-03     335.747E-03    -166.977E-03    -168.770E-03    -163.652E-03     331.877E-03    -168.225E-03     86.9433E-03     366.836E-03     92.2114E+06     94.0301E+06     58.1749E+06    -10.7215E+06    -7.01988E+06     54.4733E+06     94.0301E+06     10.9400E+06
            1378     93.6833E-03     14.3890E-03     92.5716E-03     331.514E-03    -163.410E-03    -168.104E-03    -159.582E-03     327.686E-03    -168.104E-03     85.8483E-03     359.500E-03     144.810E+06     153.664E+06     95.7748E+06    -11.1264E+06    -9.85158E+06     94.4999E+06     153.664E+06     5.57094E+06
            1379     93.1823E-03     845.398E-06     93.1785E-03     335.161E-03    -167.151E-03    -168.010E-03    -167.839E-03     335.151E-03    -167.311E-03     1.86180E-03     335.569E-03     148.954E+06    -99.6051E+06    -106.928E+06    -252.077E+06    -103.677E+06    -251.987E+06    -102.946E+06     2.61093E+06
            1380     93.1991E-03     1.69061E-03     93.1837E-03     334.505E-03    -166.872E-03    -167.633E-03    -167.127E-03     334.473E-03    -167.346E-03     6.90770E-03     335.163E-03     117.926E+06    -99.0839E+06    -103.731E+06    -219.244E+06    -102.734E+06    -219.202E+06    -100.123E+06     1.87394E+06
            1381     93.2293E-03     2.53923E-03     93.1947E-03     333.789E-03    -166.462E-03    -167.327E-03    -166.541E-03     333.735E-03    -167.194E-03     10.3074E-03     334.974E-03     109.983E+06    -89.9327E+06    -100.498E+06    -204.655E+06    -100.705E+06    -204.448E+06    -89.9327E+06     978.420E+03
            1382     93.2747E-03     3.38463E-03     93.2132E-03     334.115E-03    -166.692E-03    -167.423E-03    -166.942E-03     334.052E-03    -167.110E-03     11.1634E-03     335.930E-03     102.100E+06    -77.4955E+06    -97.7172E+06    -188.069E+06    -98.0299E+06    -187.756E+06    -77.4955E+06     2.27929E+06
            1383     93.3244E-03     4.23308E-03     93.2283E-03     335.415E-03    -167.222E-03    -168.193E-03    -168.073E-03     335.295E-03    -167.222E-03     15.1697E-03     338.395E-03     93.1417E+06    -63.3398E+06    -89.7488E+06    -166.725E+06    -90.3570E+06    -166.117E+06    -63.3398E+06     5.50695E+06
            1384     93.3927E-03     5.07589E-03     93.2547E-03     335.458E-03    -167.199E-03    -168.259E-03    -167.875E-03     335.275E-03    -167.400E-03     19.1107E-03     339.709E-03     82.0989E+06    -46.4674E+06    -81.0935E+06    -139.791E+06    -83.5126E+06    -137.372E+06    -46.4674E+06     10.0693E+06
            1385     93.4684E-03     5.92162E-03     93.2806E-03     334.617E-03    -166.933E-03    -167.684E-03    -166.919E-03     334.402E-03    -167.483E-03     20.5608E-03     339.889E-03     77.0090E+06    -24.2350E+06    -69.4092E+06    -112.945E+06    -75.4632E+06    -106.891E+06    -24.2350E+06     13.6832E+06
            1386     93.5599E-03     6.76885E-03     93.3147E-03     333.956E-03    -166.531E-03    -167.424E-03    -166.211E-03     333.635E-03    -167.424E-03     24.9508E-03     340.926E-03     70.4303E+06    -4.88139E+06    -48.7056E+06    -85.9921E+06    -66.3818E+06    -68.3158E+06    -4.88139E+06     14.6267E+06
            1387     93.6648E-03     7.61762E-03     93.3545E-03     334.072E-03    -166.572E-03    -167.500E-03    -166.298E-03     333.636E-03    -167.337E-03     29.5464E-03     342.437E-03     73.3749E+06     15.0702E+06    -11.4111E+06    -66.3158E+06    -59.0941E+06    -18.6328E+06     15.0702E+06     15.9309E+06
            1388     93.7885E-03     8.46576E-03     93.4057E-03     335.197E-03    -167.103E-03    -168.093E-03    -167.254E-03     334.595E-03    -167.341E-03     34.5399E-03     345.519E-03     81.6970E+06     31.2324E+06     12.4195E+06    -58.0279E+06    -54.2722E+06     8.66382E+06     31.2324E+06     13.6171E+06
            1389     93.9180E-03     9.30915E-03     93.4555E-03     336.265E-03    -167.394E-03    -168.870E-03    -168.115E-03     335.527E-03    -167.412E-03     38.5241E-03     348.082E-03     78.2024E+06     33.8976E+06     9.72919E+06    -53.4492E+06    -52.4576E+06     8.73762E+06     33.8976E+06     7.18905E+06
            1390     94.0609E-03     10.1558E-03     93.5110E-03     338.601E-03    -167.584E-03    -171.017E-03    -169.806E-03     337.390E-03    -167.584E-03     48.6141E-03     352.982E-03     81.2734E+06     42.6490E+06     20.9655E+06    -46.8973E+06    -43.5924E+06     17.6606E+06     42.6490E+06     12.3375E+06
            1391     94.2298E-03     10.9979E-03     93.5858E-03     339.617E-03    -167.839E-03    -171.778E-03    -170.119E-03     337.959E-03    -167.839E-03     57.9446E-03     356.313E-03     87.0998E+06     55.0160E+06     28.6414E+06    -41.4457E+06    -35.9678E+06     23.1635E+06     55.0160E+06     16.9206E+06
            1392     94.4046E-03     11.8381E-03     93.6595E-03     337.827E-03    -167.519E-03    -170.308E-03    -168.021E-03     336.014E-03    -167.993E-03     59.5545E-03     354.756E-03     84.3638E+06     53.3272E+06     14.9889E+06    -42.9710E+06    -39.1364E+06     11.1544E+06     53.3272E+06     6.14253E+06
            1393     94.5794E-03     12.6853E-03     93.7248E-03     337.418E-03    -167.182E-03    -170.236E-03    -166.966E-03     334.972E-03    -168.007E-03     69.0455E-03     358.788E-03     77.2519E+06     51.8725E+06     15.8921E+06    -36.6535E+06    -33.5291E+06     12.7678E+06     51.8725E+06    -5.34854E+06
            1394     94.8039E-03     13.5383E-03     93.8323E-03     335.261E-03    -165.986E-03    -169.275E-03    -163.709E-03     331.695E-03    -167.985E-03     83.7769E-03     363.936E-03     92.4534E+06     84.6615E+06     48.7879E+06    -20.3210E+06    -17.5121E+06     45.9790E+06     84.6615E+06     243.933E+03
            1395     95.0476E-03     14.3923E-03     93.9516E-03     330.855E-03    -162.949E-03    -167.906E-03    -159.183E-03     327.089E-03    -167.906E-03     85.7494E-03     356.797E-03     146.199E+06     157.977E+06     102.068E+06    -7.91472E+06    -6.26210E+06     100.415E+06     157.977E+06     10.0541E+06
            1396     94.5795E-03     848.099E-06     94.5757E-03     331.446E-03    -164.639E-03    -166.807E-03    -166.218E-03     331.404E-03    -165.187E-03     6.42581E-03     331.913E-03     150.301E+06    -100.404E+06    -107.392E+06    -254.074E+06    -101.552E+06    -254.013E+06    -106.306E+06     1.93859E+06
            1397     94.5945E-03     1.69503E-03     94.5793E-03     334.945E-03    -166.168E-03    -168.778E-03    -168.735E-03     334.902E-03    -166.168E-03     9.22174E-03     335.528E-03     118.976E+06    -99.0068E+06    -105.010E+06    -220.831E+06    -103.297E+06    -220.801E+06    -100.750E+06     1.49795E+06
            1398     94.6266E-03     2.53836E-03     94.5925E-03     335.147E-03    -166.817E-03    -168.330E-03    -168.099E-03     335.101E-03    -167.001E-03     9.47263E-03     336.210E-03     111.062E+06    -91.7545E+06    -103.643E+06    -208.114E+06    -103.905E+06    -207.852E+06    -91.7545E+06     4.54641E+06
            1399     94.6664E-03     3.38695E-03     94.6058E-03     334.273E-03    -166.797E-03    -167.476E-03    -167.001E-03     334.216E-03    -167.214E-03     10.5134E-03     336.123E-03     102.661E+06    -77.6801E+06    -100.999E+06    -189.804E+06    -101.318E+06    -189.485E+06    -77.6801E+06     4.92475E+06
            1400     94.7222E-03     4.23131E-03     94.6276E-03     334.259E-03    -166.695E-03    -167.565E-03    -166.925E-03     334.144E-03    -167.219E-03     14.7878E-03     337.218E-03     94.5732E+06     -62.809E+06    -94.2449E+06    -168.904E+06     -94.386E+06    -168.763E+06     -62.809E+06     2.80016E+06
            1401     94.7880E-03     5.07905E-03     94.6518E-03     334.892E-03    -166.961E-03    -167.931E-03    -167.450E-03     334.704E-03    -167.253E-03     19.3647E-03     338.960E-03     85.1940E+06    -49.4412E+06    -86.3226E+06    -146.565E+06    -87.0882E+06    -145.800E+06    -49.4412E+06     4.77597E+06
            1402     94.8648E-03     5.92454E-03     94.6796E-03     335.228E-03    -167.251E-03    -167.977E-03    -167.638E-03     334.991E-03    -167.353E-03     21.7770E-03     340.484E-03     75.9046E+06    -30.3711E+06    -75.9174E+06    -117.459E+06    -77.9146E+06    -115.462E+06    -30.3711E+06     7.78955E+06
            1403     94.9512E-03     6.77058E-03     94.7095E-03     335.677E-03    -167.280E-03    -168.397E-03    -167.880E-03     335.335E-03    -167.455E-03     26.0045E-03     342.857E-03     68.1553E+06    -10.9070E+06    -58.4073E+06    -88.9498E+06    -69.3300E+06    -78.0271E+06    -10.9070E+06     11.5033E+06
            1404     95.0582E-03     7.61525E-03     94.7527E-03     335.237E-03    -167.067E-03    -168.169E-03    -167.306E-03     334.823E-03    -167.517E-03     28.8194E-03     343.930E-03     70.5467E+06     10.5394E+06    -19.9749E+06    -68.0230E+06    -58.3030E+06    -29.6949E+06     10.5394E+06     18.3215E+06
            1405     95.1763E-03     8.46154E-03     94.7994E-03     333.636E-03    -166.153E-03    -167.483E-03    -165.604E-03     333.087E-03    -167.483E-03     32.7923E-03     343.706E-03     81.7739E+06     34.1519E+06     18.2211E+06    -53.7562E+06    -47.0844E+06     11.5493E+06     34.1519E+06     19.5728E+06
            1406     95.3112E-03     9.31172E-03     94.8553E-03     333.853E-03    -166.178E-03    -167.676E-03    -165.711E-03     333.098E-03    -167.387E-03     38.8057E-03     345.073E-03     87.9910E+06     44.3199E+06     22.8182E+06    -51.8155E+06    -46.4421E+06     17.4447E+06     44.3199E+06     16.6409E+06
            1407     95.4497E-03     10.1570E-03     94.9077E-03     335.065E-03    -166.436E-03    -168.628E-03    -166.432E-03     333.714E-03    -167.282E-03     50.9743E-03     349.385E-03     79.3859E+06     38.8580E+06     13.1189E+06    -49.1622E+06    -45.3736E+06     9.33023E+06     38.8580E+06     12.4011E+06
            1408     95.6259E-03     11.0045E-03     94.9906E-03     334.398E-03    -165.850E-03    -168.549E-03    -165.395E-03     332.562E-03    -167.167E-03     60.5302E-03     350.963E-03     71.0709E+06     37.6989E+06     19.0598E+06    -39.5959E+06    -34.9677E+06     14.4316E+06     37.6989E+06     14.5959E+06
            1409     95.7870E-03     11.8587E-03     95.0501E-03     335.265E-03    -166.444E-03    -168.821E-03    -165.884E-03     333.055E-03    -167.171E-03     66.2174E-03     353.126E-03     77.8197E+06     64.2825E+06     37.6151E+06    -22.4209E+06    -16.3472E+06     31.5413E+06     64.2825E+06     17.7398E+06
            1410     95.9797E-03     12.7040E-03     95.1353E-03     337.357E-03    -167.234E-03    -170.122E-03    -166.897E-03     334.132E-03    -167.234E-03     80.2156E-03     361.531E-03     88.2065E+06     77.2491E+06     35.5037E+06    -23.8848E+06    -18.9052E+06     30.5241E+06     77.2491E+06     6.74617E+06
            1411     96.1824E-03     13.5426E-03     95.2242E-03     336.557E-03    -165.821E-03    -170.736E-03    -164.876E-03     332.106E-03    -167.230E-03     93.9266E-03     369.446E-03     104.731E+06     83.2864E+06     39.5201E+06    -36.0709E+06    -32.9754E+06     36.4245E+06     83.2864E+06    -3.38841E+06
            1412     96.4106E-03     14.4002E-03     95.3291E-03     337.585E-03    -164.895E-03    -172.690E-03    -165.662E-03     333.021E-03    -167.359E-03     95.3723E-03     366.833E-03     147.991E+06     151.870E+06     97.8059E+06    -15.5308E+06    -14.5952E+06     96.8703E+06     151.870E+06    -1.34766E+06
            1413     95.9670E-03     854.004E-06     95.9632E-03     331.011E-03    -163.814E-03    -167.197E-03    -166.614E-03     330.977E-03    -164.363E-03     6.82823E-03     331.551E-03     149.613E+06    -103.836E+06    -108.882E+06    -255.883E+06    -105.463E+06    -255.702E+06    -107.436E+06    -1.81820E+06
            1414     95.9961E-03     1.69569E-03     95.9811E-03     335.013E-03    -166.047E-03    -168.966E-03    -168.940E-03     334.987E-03    -166.047E-03     6.45335E-03     335.597E-03     122.944E+06    -99.7465E+06    -108.008E+06    -226.595E+06    -106.351E+06    -226.509E+06     -101.49E+06     2.58019E+06
            1415     96.0234E-03     2.53993E-03     95.9898E-03     335.861E-03    -167.066E-03    -168.795E-03    -168.768E-03     335.834E-03    -167.066E-03     7.13192E-03     336.981E-03     114.134E+06    -91.6518E+06    -104.569E+06    -211.654E+06    -104.755E+06    -211.468E+06    -91.6518E+06     3.95551E+06
            1416     96.0639E-03     3.38198E-03     96.0044E-03     334.474E-03    -166.747E-03    -167.727E-03    -167.064E-03     334.421E-03    -167.358E-03     9.94556E-03     336.392E-03     104.146E+06    -78.0198E+06    -98.8837E+06    -190.827E+06    -99.3259E+06    -190.385E+06    -78.0198E+06     5.65175E+06
            1417     96.1135E-03     4.23144E-03     96.0203E-03     333.628E-03    -166.340E-03    -167.288E-03    -166.212E-03     333.500E-03    -167.288E-03     15.5190E-03     336.615E-03     97.8571E+06    -60.6147E+06    -93.7442E+06    -170.398E+06    -94.7104E+06    -169.432E+06    -60.6147E+06     7.19366E+06
            1418     96.1826E-03     5.07842E-03     96.0485E-03     334.269E-03    -166.872E-03    -167.397E-03    -166.876E-03     334.086E-03    -167.210E-03     19.1292E-03     338.277E-03     89.0257E+06    -47.1965E+06    -89.2828E+06    -149.239E+06    -90.1054E+06    -148.416E+06    -47.1965E+06     5.63299E+06
            1419     96.2595E-03     5.92495E-03     96.0770E-03     335.374E-03    -167.257E-03    -168.117E-03    -167.907E-03     335.164E-03    -167.257E-03     20.4983E-03     340.504E-03     74.8305E+06    -38.2516E+06    -84.7689E+06    -124.067E+06    -86.2183E+06    -122.618E+06    -38.2516E+06     5.99701E+06
            1420     96.3466E-03     6.76969E-03     96.1085E-03     336.051E-03    -167.318E-03    -168.734E-03    -168.283E-03     335.692E-03    -167.408E-03     26.4999E-03     343.017E-03     65.6165E+06    -19.9683E+06    -69.5173E+06    -94.1369E+06    -77.7069E+06    -85.9472E+06    -19.9683E+06     9.13959E+06
            1421     96.4563E-03     7.61333E-03     96.1554E-03     335.189E-03    -167.051E-03    -168.138E-03    -167.217E-03     334.702E-03    -167.485E-03     31.1039E-03     343.570E-03     63.0396E+06    -1.95922E+06    -40.1259E+06    -73.2249E+06    -67.0647E+06    -46.2861E+06    -1.95922E+06     11.9283E+06
            1422     96.5621E-03     8.46050E-03     96.1907E-03     333.466E-03    -166.081E-03    -167.385E-03    -165.442E-03     332.827E-03    -167.385E-03     35.3040E-03     343.474E-03     72.2357E+06     10.1785E+06    -4.22249E+06    -67.0676E+06    -60.2394E+06    -10.3461E+06     9.47394E+06     19.6130E+06
            1423     96.6961E-03     9.31034E-03     96.2468E-03     332.090E-03    -164.870E-03    -167.219E-03    -164.039E-03     331.259E-03    -167.219E-03     40.5623E-03     343.587E-03     85.1380E+06     31.8694E+06     22.5927E+06    -57.1978E+06    -48.6543E+06     14.7537E+06     31.1648E+06     24.4939E+06
            1424     96.8400E-03     10.1609E-03     96.3055E-03     331.330E-03    -164.331E-03    -166.999E-03    -163.075E-03     330.075E-03    -166.999E-03     49.0586E-03     346.451E-03     86.4039E+06     46.1999E+06     23.2984E+06    -48.2240E+06    -43.3348E+06     18.4093E+06     46.1999E+06     16.5563E+06
            1425     97.0009E-03     11.0153E-03     96.3734E-03     330.617E-03    -163.911E-03    -166.706E-03    -162.417E-03     329.123E-03    -166.706E-03     53.9738E-03     347.554E-03     80.1944E+06     49.4097E+06     23.8560E+06    -39.2401E+06    -36.8053E+06     21.4212E+06     49.4097E+06     8.72485E+06
            1426     97.1728E-03     11.8636E-03     96.4459E-03     330.264E-03    -163.417E-03    -166.847E-03    -162.021E-03     328.481E-03    -166.460E-03     58.6746E-03     348.256E-03     75.3748E+06     63.7313E+06     36.6241E+06    -20.7390E+06    -17.4567E+06     33.3418E+06     63.7313E+06     8.07663E+06
            1427     97.3620E-03     12.7156E-03     96.5281E-03     330.167E-03    -163.244E-03    -166.923E-03    -161.264E-03     327.528E-03    -166.264E-03     71.1359E-03     353.672E-03     85.3723E+06     78.5457E+06     41.9784E+06    -18.7625E+06    -13.6532E+06     36.8691E+06     78.5457E+06     14.3760E+06
            1428     97.5650E-03     13.5791E-03     96.6154E-03     336.891E-03    -164.768E-03    -172.123E-03    -166.556E-03     332.815E-03    -166.259E-03     89.0645E-03     368.134E-03     109.954E+06     101.603E+06     58.2969E+06    -23.1953E+06    -18.6199E+06     53.7216E+06     101.603E+06     11.5554E+06
            1429     97.8035E-03     14.4172E-03     96.7350E-03     346.989E-03    -166.763E-03    -180.226E-03    -175.817E-03     342.580E-03    -166.763E-03     95.0238E-03     376.353E-03     153.265E+06     157.476E+06     102.940E+06    -15.5814E+06    -14.1831E+06     101.541E+06     157.476E+06    -2.75429E+06
            1430     97.3621E-03     840.304E-06     97.3584E-03     337.066E-03    -167.094E-03    -169.972E-03    -168.790E-03     337.056E-03    -168.266E-03     4.06332E-03     337.685E-03     144.039E+06    -109.921E+06    -114.265E+06    -256.064E+06    -114.471E+06    -255.858E+06    -109.921E+06    -1.23199E+06
            1431     97.3906E-03     1.69133E-03     97.3759E-03     334.207E-03    -165.635E-03    -168.572E-03    -166.212E-03     334.189E-03    -167.977E-03     5.56468E-03     334.818E-03     126.759E+06    -104.466E+06    -110.474E+06    -234.110E+06    -110.581E+06    -234.003E+06    -104.466E+06     2.64494E+06
            1432     97.4240E-03     2.53703E-03     97.3910E-03     333.544E-03    -165.663E-03    -167.881E-03    -166.164E-03     333.512E-03    -167.348E-03     7.73410E-03     334.665E-03     116.214E+06    -93.8614E+06    -105.063E+06    -215.175E+06    -105.311E+06    -214.926E+06    -93.8614E+06     4.64755E+06
            1433     97.4577E-03     3.38643E-03     97.3988E-03     333.730E-03    -166.231E-03    -167.499E-03    -166.538E-03     333.662E-03    -167.124E-03     11.4594E-03     335.669E-03     107.669E+06    -80.3458E+06    -100.607E+06    -196.596E+06    -101.138E+06    -196.064E+06    -80.3458E+06     6.42249E+06
            1434     97.5070E-03     4.23204E-03     97.4151E-03     333.947E-03    -166.613E-03    -167.334E-03    -166.721E-03     333.791E-03    -167.070E-03     17.3279E-03     337.085E-03     99.9165E+06    -66.6970E+06    -96.2837E+06    -177.876E+06    -97.6744E+06    -176.485E+06    -66.6970E+06     9.98644E+06
            1435     97.5777E-03     5.07826E-03     97.4455E-03     334.112E-03    -166.987E-03    -167.126E-03    -166.804E-03     333.877E-03    -167.073E-03     21.5949E-03     338.186E-03     90.6335E+06    -51.0312E+06    -92.1392E+06    -154.453E+06    -94.4480E+06    -152.144E+06    -51.0312E+06     11.0611E+06
            1436     97.6534E-03     5.92408E-03     97.4735E-03     334.971E-03    -167.123E-03    -167.848E-03    -167.532E-03     334.662E-03    -167.130E-03     24.5207E-03     340.254E-03     78.6329E+06    -35.1223E+06    -85.0875E+06    -125.402E+06    -88.0730E+06    -122.417E+06    -35.1223E+06     9.75895E+06
            1437     97.7446E-03     6.76943E-03     97.5099E-03     334.995E-03    -167.106E-03    -167.889E-03    -167.383E-03     334.579E-03    -167.196E-03     28.6487E-03     341.978E-03     66.8353E+06    -22.8806E+06    -74.1900E+06    -98.2425E+06    -81.2125E+06    -91.2201E+06    -22.8806E+06     9.12127E+06
            1438     97.8439E-03     7.61968E-03     97.5467E-03     333.810E-03    -166.605E-03    -167.205E-03    -166.142E-03     333.320E-03    -167.178E-03     31.1557E-03     341.860E-03     64.8105E+06    -9.46568E+06    -49.4805E+06    -82.6098E+06    -76.5931E+06    -55.4971E+06    -9.46568E+06     11.4804E+06
            1439     97.9571E-03     8.46737E-03     97.5905E-03     333.468E-03    -166.383E-03    -167.085E-03    -165.734E-03     332.818E-03    -167.085E-03     35.7011E-03     343.208E-03     73.8046E+06     7.67193E+06    -11.5208E+06    -72.9489E+06    -68.0973E+06    -15.6679E+06     6.96742E+06     15.3279E+06
            1440     98.0818E-03     9.31214E-03     97.6387E-03     332.851E-03    -165.608E-03    -167.243E-03    -165.086E-03     332.046E-03    -166.960E-03     39.9663E-03     344.769E-03     77.4258E+06     19.2256E+06     11.5669E+06    -61.6610E+06    -57.7453E+06     8.35567E+06     18.5211E+06     14.7524E+06
            1441     98.2191E-03     10.1643E-03     97.6917E-03     332.132E-03    -164.994E-03    -167.138E-03    -164.283E-03     331.137E-03    -166.854E-03     44.1879E-03     347.448E-03     82.3707E+06     38.4785E+06     28.6817E+06    -48.2923E+06    -45.2832E+06     25.6726E+06     38.4785E+06     14.5018E+06
            1442     98.3848E-03     11.0108E-03     97.7668E-03     330.649E-03    -163.922E-03    -166.727E-03    -162.881E-03     329.609E-03    -166.727E-03     45.0969E-03     347.496E-03     89.5416E+06     57.1920E+06     34.4568E+06    -40.9907E+06    -39.1061E+06     32.5722E+06     57.1920E+06     9.20337E+06
            1443     98.5472E-03     11.8642E-03     97.8304E-03     327.514E-03    -161.064E-03    -166.450E-03    -159.868E-03     326.318E-03    -166.450E-03     47.3655E-03     345.148E-03     87.2560E+06     59.8767E+06     24.5105E+06    -39.3118E+06    -38.1400E+06     23.3388E+06     59.8767E+06     4.66191E+06
            1444     98.7317E-03     12.7222E-03     97.9086E-03     327.957E-03    -161.335E-03    -166.621E-03    -160.212E-03     326.345E-03    -166.134E-03     55.5333E-03     348.810E-03     86.4254E+06     68.8493E+06     33.0366E+06    -29.5737E+06    -26.2280E+06     29.6909E+06     68.8493E+06     8.23582E+06
            1445     98.9325E-03     13.5692E-03     97.9976E-03     337.707E-03    -164.706E-03    -173.001E-03    -168.472E-03     334.670E-03    -166.198E-03     76.6631E-03     364.948E-03     105.311E+06     103.784E+06     66.0889E+06    -15.1040E+06    -11.8830E+06     62.8680E+06     103.784E+06     9.47739E+06
            1446     99.2158E-03     14.4121E-03     98.1635E-03     344.870E-03    -166.775E-03    -178.095E-03    -174.534E-03     341.309E-03    -166.775E-03     85.4745E-03     371.332E-03     154.527E+06     164.383E+06     111.768E+06      -9.567E+06    -8.36431E+06     110.565E+06     164.383E+06     6.28205E+06
            1447     98.7656E-03     842.829E-06     98.7620E-03     338.852E-03    -168.382E-03    -170.470E-03    -168.622E-03     338.834E-03    -170.212E-03     4.66638E-03     339.367E-03     140.232E+06    -111.414E+06    -118.143E+06    -254.883E+06    -115.762E+06    -254.822E+06    -113.856E+06     2.11984E+06
            1448     98.7846E-03     1.68702E-03     98.7702E-03     333.062E-03    -164.671E-03    -168.391E-03    -164.627E-03     333.018E-03    -168.391E-03     9.19951E-03     333.642E-03     127.181E+06    -110.052E+06    -115.674E+06    -239.944E+06    -115.765E+06    -239.854E+06    -110.052E+06     2.43256E+06
            1449     98.8133E-03     2.54059E-03     98.7806E-03     331.019E-03    -164.054E-03    -166.965E-03    -163.994E-03     330.959E-03    -166.965E-03     10.7202E-03     332.048E-03     117.801E+06    -100.238E+06    -111.420E+06    -223.125E+06    -111.983E+06    -222.562E+06    -100.238E+06     7.02161E+06
            1450     98.8522E-03     3.38778E-03     98.7941E-03     332.584E-03    -165.587E-03    -166.997E-03    -166.020E-03     332.483E-03    -166.463E-03     13.7441E-03     334.397E-03     109.591E+06    -87.1873E+06    -108.861E+06    -205.852E+06    -109.696E+06    -205.016E+06    -87.1873E+06     8.83444E+06
            1451     98.9037E-03     4.23367E-03     98.8131E-03     333.956E-03    -166.495E-03    -167.460E-03    -167.251E-03     333.779E-03    -166.528E-03     18.5849E-03     336.889E-03     99.3658E+06    -73.7560E+06    -104.003E+06    -184.619E+06    -105.062E+06    -183.561E+06    -73.7560E+06     8.88915E+06
            1452     98.9686E-03     5.08117E-03     98.8381E-03     333.525E-03    -166.467E-03    -167.058E-03    -166.611E-03     333.271E-03    -166.661E-03     22.4380E-03     337.494E-03     91.1059E+06    -53.7663E+06    -92.4738E+06    -157.558E+06    -94.7132E+06    -155.319E+06    -53.7663E+06     11.1792E+06
            1453     99.0491E-03     5.92901E-03     98.8715E-03     333.486E-03    -166.506E-03    -166.980E-03    -166.428E-03     333.126E-03    -166.698E-03     26.6849E-03     338.767E-03     83.5422E+06    -35.2096E+06    -82.8955E+06    -131.242E+06    -87.7332E+06    -126.404E+06    -35.2096E+06     13.5261E+06
            1454     99.1380E-03     6.77563E-03     98.9062E-03     334.569E-03    -166.724E-03    -167.845E-03    -167.377E-03     334.131E-03    -166.755E-03     29.5891E-03     341.417E-03     75.5396E+06    -21.8760E+06    -71.9576E+06    -108.421E+06    -85.2781E+06    -95.1005E+06    -21.8760E+06     15.3751E+06
            1455     99.2352E-03     7.61875E-03     98.9423E-03     334.752E-03    -166.568E-03    -168.184E-03    -167.455E-03     334.318E-03    -166.863E-03     29.5081E-03     342.770E-03     71.1275E+06    -7.42511E+06    -50.2277E+06    -88.8528E+06    -80.3514E+06    -58.7292E+06    -7.42511E+06     14.4624E+06
            1456     99.3448E-03     8.46658E-03     98.9834E-03     333.703E-03    -166.273E-03    -167.429E-03    -166.272E-03     333.188E-03    -166.916E-03     31.8602E-03     343.409E-03     78.3370E+06     11.4639E+06    -13.6639E+06    -74.9856E+06    -72.0700E+06    -16.5795E+06     11.4639E+06     11.8370E+06
            1457     99.4717E-03     9.31760E-03     99.0343E-03     334.122E-03    -166.571E-03    -167.552E-03    -166.533E-03     333.452E-03    -166.919E-03     36.5565E-03     345.928E-03     84.7564E+06     24.5305E+06     11.0655E+06    -66.0849E+06    -64.9341E+06     9.91469E+06     24.5305E+06     8.92622E+06
            1458     99.6086E-03     10.1582E-03     99.0892E-03     334.521E-03    -166.899E-03    -167.622E-03    -166.674E-03     333.610E-03    -166.936E-03     42.4986E-03     349.197E-03     83.6393E+06     33.3079E+06     24.0393E+06    -54.4102E+06    -53.1308E+06     22.7600E+06     33.3079E+06     6.62546E+06
            1459     99.7669E-03     11.0073E-03     99.1579E-03     332.385E-03    -165.394E-03    -166.991E-03    -164.504E-03     331.443E-03    -166.938E-03     43.1313E-03     348.389E-03     86.8457E+06     51.5142E+06     37.2177E+06    -41.1866E+06    -38.5808E+06     34.6118E+06     51.5142E+06     10.1337E+06
            1460     99.9210E-03     11.8574E-03     99.2149E-03     330.863E-03    -163.556E-03    -167.307E-03    -163.139E-03     329.981E-03    -166.842E-03     41.6817E-03     347.727E-03     90.3507E+06     56.3728E+06     28.2575E+06    -44.5127E+06    -41.9169E+06     25.6616E+06     56.3728E+06     10.9925E+06
            1461     100.100E-03     12.7074E-03     99.2901E-03     333.222E-03    -165.021E-03    -168.201E-03    -165.016E-03     331.815E-03    -166.799E-03     52.2275E-03     353.698E-03     91.2311E+06     67.2645E+06     32.8402E+06    -36.0618E+06    -34.8889E+06     31.6673E+06     67.2645E+06     4.32991E+06
            1462     100.323E-03     13.5550E-03     99.4030E-03     337.790E-03    -166.956E-03    -170.834E-03    -167.472E-03     334.428E-03    -166.956E-03     80.1182E-03     366.890E-03     106.812E+06     103.928E+06     65.8425E+06    -16.6236E+06    -16.1214E+06     65.3403E+06     103.928E+06     3.19318E+06
            1463     100.593E-03     14.3999E-03     99.5569E-03     335.410E-03    -164.791E-03    -170.619E-03    -164.364E-03     331.521E-03    -167.157E-03     87.4752E-03     363.147E-03     152.920E+06     163.250E+06     112.237E+06    -8.65143E+06    -8.10326E+06     111.689E+06     163.250E+06     6.30134E+06
            1464     100.169E-03     846.029E-06     100.166E-03     332.883E-03    -165.933E-03    -166.950E-03    -165.976E-03     332.868E-03    -166.892E-03     1.06275E-03     333.362E-03     143.980E+06    -113.813E+06    -123.566E+06    -262.363E+06    -121.245E+06    -262.241E+06    -116.255E+06     3.84259E+06
            1465     100.175E-03     1.69603E-03     100.161E-03     331.022E-03    -164.678E-03    -166.344E-03    -164.920E-03     330.976E-03    -166.056E-03     8.87980E-03     331.594E-03     130.336E+06    -109.168E+06    -117.532E+06    -243.435E+06    -117.708E+06    -243.259E+06    -109.168E+06     4.59666E+06
            1466     100.203E-03     2.54155E-03     100.171E-03     330.600E-03    -164.434E-03    -166.165E-03    -164.849E-03     330.510E-03    -165.661E-03     13.1892E-03     331.632E-03     126.379E+06    -99.5919E+06    -113.954E+06    -232.497E+06    -114.481E+06    -231.970E+06    -99.5919E+06     7.07135E+06
            1467     100.243E-03     3.39131E-03     100.186E-03     331.876E-03    -165.259E-03    -166.618E-03    -166.115E-03     331.735E-03    -165.620E-03     16.5499E-03     333.712E-03     115.330E+06    -85.8142E+06    -106.471E+06    -209.968E+06    -107.521E+06    -208.918E+06    -85.8142E+06     9.99819E+06
            1468     100.300E-03     4.23842E-03     100.210E-03     333.414E-03    -165.881E-03    -167.532E-03    -167.347E-03     333.229E-03    -165.881E-03     19.2274E-03     336.222E-03     105.445E+06    -69.1437E+06    -99.3326E+06    -186.209E+06    -100.664E+06    -184.878E+06    -69.1437E+06     10.6101E+06
            1469     100.362E-03     5.08249E-03     100.233E-03     333.415E-03    -166.006E-03    -167.409E-03    -167.027E-03     333.186E-03    -166.159E-03     21.3197E-03     337.428E-03     98.5483E+06    -54.6706E+06    -95.4705E+06    -166.758E+06    -97.5754E+06    -164.653E+06    -54.6706E+06     11.5264E+06
            1470     100.438E-03     5.93004E-03     100.263E-03     332.677E-03    -166.083E-03    -166.594E-03    -166.074E-03     332.347E-03    -166.273E-03     25.5171E-03     338.174E-03     87.7233E+06    -37.5855E+06    -87.0805E+06    -138.474E+06    -91.3253E+06    -134.229E+06    -37.5855E+06     13.1547E+06
            1471     100.531E-03     6.77822E-03     100.302E-03     333.472E-03    -166.302E-03    -167.171E-03    -166.680E-03     333.018E-03    -166.337E-03     30.0991E-03     340.693E-03     81.1141E+06    -16.4742E+06    -68.0939E+06    -109.830E+06    -79.5861E+06    -98.3380E+06    -16.4742E+06     15.8441E+06
            1472     100.634E-03     7.62429E-03     100.344E-03     334.893E-03    -166.474E-03    -168.420E-03    -167.911E-03     334.385E-03    -166.474E-03     31.9293E-03     343.299E-03     77.2770E+06    -694.826E+03    -44.1961E+06    -89.3452E+06    -73.7503E+06    -59.7910E+06    -694.826E+03     17.5378E+06
            1473     100.735E-03     8.46680E-03     100.378E-03     335.728E-03    -166.520E-03    -169.208E-03    -168.398E-03     335.071E-03    -166.673E-03     35.7749E-03     346.148E-03     82.5073E+06     15.2265E+06    -8.72345E+06    -75.0755E+06    -70.2840E+06    -13.5149E+06     15.2265E+06     14.8116E+06
            1474     100.860E-03     9.31049E-03     100.429E-03     335.763E-03    -166.722E-03    -169.040E-03    -168.072E-03     334.948E-03    -166.876E-03     40.1650E-03     348.178E-03     89.8285E+06     32.4988E+06     17.7227E+06    -63.7272E+06    -62.1806E+06     16.1762E+06     32.4988E+06     10.6741E+06
            1475     101.002E-03     10.1618E-03     100.489E-03     335.075E-03    -166.994E-03    -168.081E-03    -167.137E-03     334.131E-03    -166.994E-03     43.4143E-03     349.732E-03     93.7927E+06     39.9267E+06     25.3168E+06    -60.1078E+06    -58.1483E+06     23.3572E+06     39.9267E+06     9.09011E+06
            1476     101.149E-03     11.0077E-03     100.548E-03     335.006E-03    -166.830E-03    -168.176E-03    -166.982E-03     334.028E-03    -167.046E-03     44.2443E-03     351.202E-03     92.7468E+06     40.3960E+06     27.9982E+06    -57.7269E+06    -54.6471E+06     24.9184E+06     40.3960E+06     7.30456E+06
            1477     101.309E-03     11.8539E-03     100.613E-03     335.904E-03    -166.936E-03    -168.968E-03    -167.686E-03     334.839E-03    -167.153E-03     46.0513E-03     352.664E-03     82.9829E+06     48.3735E+06     31.9207E+06    -41.4365E+06    -39.5666E+06     30.0508E+06     48.3735E+06     4.23480E+06
            1478     101.484E-03     12.6957E-03     100.687E-03     336.551E-03    -167.306E-03    -169.245E-03    -167.218E-03     334.524E-03    -167.306E-03     62.2420E-03     357.549E-03     82.7361E+06     62.7216E+06     38.0959E+06    -29.3562E+06    -29.0590E+06     37.7987E+06     62.7216E+06     3.47107E+06
            1479     101.702E-03     13.5427E-03     100.797E-03     336.132E-03    -167.410E-03    -168.722E-03    -164.608E-03     332.018E-03    -167.410E-03     89.2707E-03     366.970E-03     106.145E+06     98.2242E+06     62.6473E+06    -21.1274E+06    -20.5145E+06     62.0345E+06     98.2242E+06     6.72665E+06
            1480     101.963E-03     14.4018E-03     100.941E-03     329.240E-03    -161.504E-03    -167.736E-03    -157.852E-03     325.185E-03    -167.333E-03     87.6595E-03     357.963E-03     154.803E+06     168.554E+06     115.614E+06    -5.75542E+06    -5.23865E+06     115.097E+06     168.554E+06     3.23823E+06
            1481     101.553E-03     851.462E-06     101.550E-03     326.289E-03    -162.312E-03    -163.977E-03    -163.423E-03     326.278E-03    -162.855E-03     1.26992E-03     326.835E-03     154.573E+06    -114.848E+06    -124.866E+06    -274.069E+06    -120.870E+06    -273.969E+06    -118.944E+06     2.58656E+06
            1482     101.567E-03     1.69851E-03     101.553E-03     328.921E-03    -163.494E-03    -165.427E-03    -165.398E-03     328.892E-03    -163.494E-03     6.58510E-03     329.492E-03     139.306E+06    -107.162E+06    -113.934E+06    -249.644E+06    -114.175E+06    -249.316E+06    -107.248E+06     6.06137E+06
            1483     101.592E-03     2.54842E-03     101.560E-03     330.450E-03    -164.295E-03    -166.156E-03    -166.072E-03     330.366E-03    -164.295E-03     12.6036E-03     331.588E-03     136.485E+06    -96.0195E+06    -110.835E+06    -239.228E+06    -111.249E+06    -238.814E+06    -96.0195E+06     7.06927E+06
            1484     101.636E-03     3.39343E-03     101.580E-03     331.795E-03    -164.857E-03    -166.938E-03    -166.792E-03     331.649E-03    -164.857E-03     16.9051E-03     333.936E-03     122.516E+06     -83.468E+06    -104.724E+06    -215.150E+06    -105.423E+06    -214.451E+06     -83.468E+06      8.0909E+06
            1485     101.692E-03     4.23929E-03     101.603E-03     332.708E-03    -165.340E-03    -167.368E-03    -167.182E-03     332.523E-03    -165.340E-03     19.2272E-03     335.799E-03     114.718E+06    -65.5399E+06    -95.6504E+06    -192.209E+06    -96.8794E+06    -190.980E+06    -65.5399E+06     10.6103E+06
            1486     101.757E-03     5.08703E-03     101.630E-03     333.240E-03    -165.720E-03    -167.520E-03    -167.310E-03     333.030E-03    -165.720E-03     20.4654E-03     337.271E-03     107.008E+06    -50.1023E+06    -91.8269E+06    -171.259E+06    -94.1444E+06    -168.941E+06    -50.1023E+06     12.6144E+06
            1487     101.829E-03     5.93217E-03     101.656E-03     332.592E-03    -165.858E-03    -166.734E-03    -166.347E-03     332.277E-03    -165.930E-03     24.7884E-03     338.055E-03     91.2797E+06    -34.6948E+06    -86.0041E+06    -139.662E+06    -88.9449E+06    -136.721E+06    -34.6948E+06     12.1205E+06
            1488     101.921E-03     6.77920E-03     101.696E-03     331.492E-03    -165.492E-03    -165.999E-03    -165.052E-03     330.999E-03    -165.947E-03     31.1092E-03     338.654E-03     83.3243E+06    -19.2625E+06     -74.756E+06    -114.875E+06    -81.0594E+06    -108.571E+06    -19.2625E+06     13.0077E+06
            1489     102.023E-03     7.62827E-03     101.737E-03     332.254E-03    -165.522E-03    -166.731E-03    -165.760E-03     331.665E-03    -165.905E-03     34.2017E-03     340.379E-03     76.1542E+06    -2.36865E+06    -48.2896E+06    -89.3595E+06    -70.7952E+06    -66.8539E+06    -2.36865E+06     17.4810E+06
            1490     102.132E-03     8.47691E-03     101.780E-03     335.206E-03    -166.030E-03    -169.176E-03    -168.339E-03     334.369E-03    -166.030E-03     40.6418E-03     345.228E-03     83.2151E+06     20.5606E+06    -2.02215E+06    -69.7378E+06    -60.4337E+06    -9.26897E+06     18.5033E+06     21.1321E+06
            1491     102.258E-03     9.31947E-03     101.832E-03     336.981E-03    -166.353E-03    -170.628E-03    -169.573E-03     335.926E-03    -166.353E-03     46.1945E-03     349.155E-03     95.7510E+06     40.3740E+06     26.3789E+06    -61.5038E+06    -56.0332E+06     22.9656E+06     38.3166E+06     19.7037E+06
            1492     102.386E-03     10.1605E-03     101.881E-03     336.578E-03    -166.659E-03    -169.919E-03    -168.714E-03     335.373E-03    -166.659E-03     48.8984E-03     350.826E-03     95.6666E+06     50.6301E+06     30.3084E+06    -53.4798E+06    -50.3725E+06     27.2012E+06     50.6301E+06     15.0968E+06
            1493     102.543E-03     11.0074E-03     101.950E-03     337.242E-03    -166.852E-03    -170.390E-03    -169.014E-03     335.866E-03    -166.852E-03     52.1308E-03     353.631E-03     91.8135E+06     46.4700E+06     26.6934E+06    -53.3770E+06    -49.7434E+06     23.0598E+06     46.4700E+06     10.2056E+06
            1494     102.697E-03     11.8506E-03     102.011E-03     337.977E-03    -167.091E-03    -170.886E-03    -169.426E-03     336.517E-03    -167.091E-03     54.0378E-03     355.844E-03     85.0306E+06     57.0678E+06     39.0858E+06    -35.3126E+06    -32.9406E+06     36.7138E+06     57.0678E+06     5.44084E+06
            1495     102.874E-03     12.7011E-03     102.087E-03     336.601E-03    -167.263E-03    -169.338E-03    -167.062E-03     334.325E-03    -167.263E-03     66.6541E-03     359.017E-03     80.1078E+06     64.7846E+06     42.3789E+06    -23.9953E+06    -23.7096E+06     42.0932E+06     64.7846E+06     893.633E+03
            1496     103.081E-03     13.5525E-03     102.187E-03     334.732E-03    -166.853E-03    -167.878E-03    -163.143E-03     330.433E-03    -167.290E-03     91.2707E-03     367.770E-03     102.936E+06     88.4497E+06     53.5827E+06    -27.3772E+06    -26.3461E+06     52.5515E+06     88.4497E+06    -2.79844E+06
            1497     103.336E-03     14.4000E-03     102.327E-03     327.847E-03    -160.530E-03    -167.316E-03    -156.739E-03     323.927E-03    -167.188E-03     85.2474E-03     358.009E-03     159.034E+06     170.646E+06     117.044E+06    -8.21972E+06    -7.24779E+06     116.072E+06     170.646E+06    -2.72072E+06
            1498     102.944E-03     854.042E-06     102.941E-03     323.887E-03    -161.122E-03    -162.765E-03    -162.255E-03     323.879E-03    -161.625E-03     1.21199E-03     324.464E-03     163.897E+06    -113.135E+06    -121.537E+06    -280.978E+06    -117.073E+06    -280.871E+06    -117.705E+06     2.44052E+06
            1499     102.950E-03     1.70179E-03     102.936E-03     327.814E-03    -162.475E-03    -165.339E-03    -165.316E-03     327.791E-03    -162.475E-03     5.75124E-03     328.358E-03     143.850E+06    -113.921E+06    -116.352E+06    -258.954E+06    -116.008E+06    -258.737E+06    -114.482E+06     3.94563E+06
            1500     102.984E-03     2.54733E-03     102.953E-03     330.542E-03    -163.716E-03    -166.826E-03    -166.760E-03     330.476E-03    -163.716E-03     11.2906E-03     331.676E-03     139.559E+06    -99.3038E+06    -109.905E+06    -243.701E+06    -110.324E+06    -243.282E+06    -99.3038E+06     6.80925E+06
            1501     103.027E-03     3.39484E-03     102.971E-03     331.311E-03    -164.532E-03    -166.779E-03    -166.656E-03     331.188E-03    -164.532E-03     15.4444E-03     333.530E-03     127.579E+06    -83.5038E+06    -105.302E+06    -220.464E+06    -105.755E+06    -220.011E+06    -83.5038E+06     7.09935E+06
            1502     103.085E-03     4.24193E-03     102.998E-03     331.398E-03    -164.974E-03    -166.424E-03    -166.239E-03     331.213E-03    -164.974E-03     19.0618E-03     334.695E-03     120.530E+06    -70.0008E+06    -100.489E+06    -202.784E+06    -101.332E+06    -201.941E+06    -70.0008E+06     8.97728E+06
            1503     103.148E-03     5.08708E-03     103.023E-03     331.637E-03    -165.240E-03    -166.397E-03    -166.153E-03     331.393E-03    -165.240E-03     21.8452E-03     335.879E-03     111.704E+06    -48.4798E+06    -86.0709E+06    -173.885E+06    -88.0525E+06    -171.904E+06    -48.4798E+06     12.5302E+06
            1504     103.223E-03     5.93414E-03     103.053E-03     331.628E-03    -165.335E-03    -166.293E-03    -165.881E-03     331.282E-03    -165.402E-03     25.9514E-03     337.141E-03     98.5976E+06    -30.7650E+06    -77.5795E+06    -143.643E+06    -82.0795E+06    -139.143E+06    -30.7650E+06     15.6420E+06
            1505     103.305E-03     6.78328E-03     103.082E-03     330.805E-03    -165.004E-03    -165.801E-03    -164.851E-03     330.305E-03    -165.454E-03     31.3163E-03     337.586E-03     91.1856E+06    -14.5229E+06    -71.7096E+06    -119.323E+06    -78.8838E+06    -112.149E+06    -14.5229E+06     15.4686E+06
            1506     103.411E-03     7.63336E-03     103.129E-03     330.625E-03    -165.003E-03    -165.622E-03    -164.626E-03     330.012E-03    -165.386E-03     34.7926E-03     338.424E-03     76.4480E+06    -903.743E+03    -55.7616E+06    -88.1381E+06    -69.5127E+06    -74.3869E+06    -903.743E+03     12.7989E+06
            1507     103.521E-03     8.48027E-03     103.173E-03     331.898E-03    -165.350E-03    -166.548E-03    -165.710E-03     331.061E-03    -165.350E-03     40.5370E-03     341.452E-03     75.1312E+06     15.8569E+06    -16.1137E+06     -66.886E+06    -58.9686E+06    -21.9738E+06     13.7996E+06     17.8625E+06
            1508     103.653E-03     9.32879E-03     103.233E-03     333.289E-03    -165.329E-03    -167.960E-03    -166.701E-03     332.164E-03    -165.463E-03     47.3808E-03     344.516E-03     92.2644E+06     43.6606E+06     26.3586E+06    -55.7839E+06    -46.7607E+06     23.9013E+06     37.0947E+06     26.0192E+06
            1509     103.784E-03     10.1742E-03     103.284E-03     335.291E-03    -165.546E-03    -169.745E-03    -168.014E-03     333.694E-03    -165.680E-03     56.2470E-03     348.912E-03     96.9034E+06     55.7673E+06     35.4776E+06    -49.5858E+06    -43.7065E+06     34.1069E+06     51.2587E+06     20.1289E+06
            1510     103.931E-03     11.0182E-03     103.345E-03     338.106E-03    -166.006E-03    -172.100E-03    -170.032E-03     336.038E-03    -166.006E-03     64.6830E-03     354.293E-03     92.7011E+06     65.4591E+06     39.6518E+06    -37.2185E+06    -34.0909E+06     36.5241E+06     65.4591E+06     10.4372E+06
            1511     104.097E-03     11.8633E-03     103.419E-03     340.360E-03    -166.432E-03    -173.928E-03    -171.902E-03     338.335E-03    -166.432E-03     64.2191E-03     358.194E-03     90.1131E+06     76.1540E+06     41.5718E+06    -25.3147E+06    -22.6799E+06     38.9370E+06     76.1540E+06     7.47160E+06
            1512     104.257E-03     12.7025E-03     103.480E-03     339.904E-03    -166.810E-03    -173.094E-03    -170.788E-03     337.598E-03    -166.810E-03     68.2509E-03     362.453E-03     85.3171E+06     73.8711E+06     42.5789E+06    -21.7447E+06    -21.0395E+06     41.8737E+06     73.8711E+06     1.63972E+06
            1513     104.461E-03     13.5502E-03     103.578E-03     334.759E-03    -165.424E-03    -169.335E-03    -164.096E-03     331.105E-03    -167.008E-03     84.3558E-03     368.203E-03     102.705E+06     98.6503E+06     63.3244E+06    -16.9083E+06    -16.1068E+06     62.5229E+06     98.6503E+06    -5.45961E+06
            1514     104.703E-03     14.4124E-03     103.707E-03     327.570E-03    -160.604E-03    -166.966E-03    -157.343E-03     324.309E-03    -166.966E-03     77.5980E-03     357.851E-03     160.247E+06     168.337E+06     115.683E+06    -11.4726E+06    -10.7925E+06     115.003E+06     168.337E+06    -3.77519E+06
            1515     104.311E-03     847.603E-06     104.308E-03     324.873E-03    -161.209E-03    -163.664E-03    -163.367E-03     324.835E-03    -161.468E-03     5.08698E-03     325.469E-03     166.372E+06    -115.360E+06    -126.083E+06    -286.776E+06    -121.271E+06    -286.650E+06    -120.299E+06     3.12088E+06
            1516     104.343E-03     1.70103E-03     104.329E-03     328.592E-03    -162.926E-03    -165.666E-03    -165.628E-03     328.554E-03    -162.926E-03     7.87091E-03     329.188E-03     143.348E+06    -117.292E+06    -122.736E+06    -263.236E+06    -122.313E+06    -263.184E+06    -117.766E+06     1.21020E+06
            1517     104.372E-03     2.54749E-03     104.341E-03     330.938E-03    -164.062E-03    -166.877E-03    -166.822E-03     330.883E-03    -164.062E-03     10.2649E-03     332.055E-03     137.081E+06    -107.722E+06    -115.566E+06    -248.477E+06    -115.741E+06    -248.302E+06    -107.722E+06     1.69191E+06
            1518     104.420E-03     3.39357E-03     104.364E-03     330.590E-03    -164.456E-03    -166.134E-03    -165.802E-03     330.505E-03    -164.703E-03     12.8551E-03     332.626E-03     127.403E+06    -90.9501E+06    -107.392E+06    -225.563E+06    -107.804E+06    -225.151E+06    -90.9501E+06     5.34430E+06
            1519     104.472E-03     4.24151E-03     104.386E-03     329.085E-03    -163.843E-03    -165.242E-03    -164.099E-03     328.935E-03    -164.836E-03     16.8890E-03     332.183E-03     123.023E+06    -73.4007E+06    -101.481E+06    -207.943E+06    -102.057E+06    -207.367E+06    -73.4007E+06     7.28570E+06
            1520     104.539E-03     5.09247E-03     104.415E-03     328.665E-03    -163.717E-03    -164.948E-03    -163.677E-03     328.416E-03    -164.739E-03     21.9195E-03     332.871E-03     114.630E+06    -53.6170E+06    -91.1603E+06    -182.023E+06    -92.3350E+06    -180.848E+06    -53.6170E+06     8.78641E+06
            1521     104.610E-03     5.94196E-03     104.441E-03     329.680E-03    -164.427E-03    -165.253E-03    -164.618E-03     329.320E-03    -164.702E-03     26.5002E-03     335.304E-03     103.456E+06    -32.4071E+06    -77.4860E+06    -150.515E+06    -80.8394E+06    -147.162E+06    -32.4071E+06     12.1803E+06
            1522     104.698E-03     6.78763E-03     104.478E-03     330.390E-03    -164.778E-03    -165.612E-03    -165.094E-03     329.872E-03    -164.778E-03     31.8523E-03     337.535E-03     96.9420E+06    -10.3557E+06    -62.7901E+06    -121.750E+06    -70.0878E+06    -114.453E+06    -10.3557E+06     16.2394E+06
            1523     104.793E-03     7.63451E-03     104.515E-03     329.969E-03    -164.746E-03    -165.223E-03    -164.443E-03     329.261E-03    -164.818E-03     37.2297E-03     338.566E-03     86.4512E+06     10.0517E+06    -45.2399E+06    -89.1267E+06    -63.4511E+06    -70.9155E+06     10.0517E+06     17.7093E+06
            1524     104.911E-03     8.48486E-03     104.567E-03     328.798E-03    -164.022E-03    -164.776E-03    -163.125E-03     327.828E-03    -164.703E-03     43.4275E-03     339.089E-03     74.3559E+06     16.8858E+06    -29.6614E+06    -67.3410E+06    -60.3570E+06    -36.6454E+06     16.8858E+06     13.4976E+06
            1525     105.034E-03     9.33465E-03     104.618E-03     327.614E-03    -163.106E-03    -164.507E-03    -161.900E-03     326.371E-03    -164.471E-03     49.2334E-03     338.921E-03     79.6918E+06     29.4668E+06     5.02988E+06    -56.4327E+06    -50.3143E+06     3.65940E+06     24.7190E+06     18.3452E+06
            1526     105.170E-03     10.1896E-03     104.676E-03     330.475E-03    -163.642E-03    -166.833E-03    -164.231E-03     328.629E-03    -164.398E-03     59.8893E-03     344.645E-03     94.2548E+06     55.6715E+06     45.9293E+06    -42.8267E+06    -36.5750E+06     44.4254E+06     50.9236E+06     21.9981E+06
            1527     105.327E-03     11.0367E-03     104.748E-03     335.651E-03    -164.650E-03    -171.001E-03    -168.601E-03     333.250E-03    -164.650E-03     69.5520E-03     352.048E-03     102.465E+06     75.9152E+06     59.8516E+06    -33.0216E+06    -30.2335E+06     57.0634E+06     75.9152E+06     12.6145E+06
            1528     105.491E-03     11.8785E-03     104.820E-03     339.454E-03    -165.122E-03    -174.332E-03    -171.625E-03     336.748E-03    -165.122E-03     73.9445E-03     356.413E-03     100.491E+06     84.7403E+06     44.4719E+06    -27.2394E+06    -25.6036E+06     42.8360E+06     84.7403E+06     6.42424E+06
            1529     105.664E-03     12.7195E-03     104.896E-03     342.454E-03    -165.647E-03    -176.808E-03    -173.488E-03     339.135E-03    -165.647E-03     82.0476E-03     364.813E-03     100.686E+06     85.2393E+06     50.7861E+06    -24.8470E+06    -23.5663E+06     49.5054E+06     85.2393E+06     7.37053E+06
            1530     105.845E-03     13.5573E-03     104.973E-03     340.893E-03    -164.978E-03    -175.916E-03    -170.417E-03     336.543E-03    -166.126E-03     93.4469E-03     374.093E-03     112.749E+06     102.106E+06     72.9092E+06    -21.0404E+06    -19.8821E+06     71.7508E+06     102.106E+06     1.80511E+06
            1531     106.062E-03     14.4055E-03     105.079E-03     336.929E-03    -163.373E-03    -173.556E-03    -166.719E-03     333.260E-03    -166.540E-03     83.9169E-03     366.787E-03     157.428E+06     161.899E+06     111.083E+06    -14.3803E+06    -13.9389E+06     110.642E+06     161.899E+06    -3.80892E+06
            1532     105.706E-03     855.941E-06     105.703E-03     328.719E-03    -162.828E-03    -165.891E-03    -165.856E-03     328.684E-03    -162.828E-03     6.00707E-03     329.284E-03     175.532E+06    -113.358E+06    -121.798E+06    -292.894E+06    -116.562E+06    -292.834E+06    -118.654E+06     1.30778E+06
            1533     105.727E-03     1.69630E-03     105.713E-03     331.138E-03    -164.610E-03    -166.528E-03    -166.418E-03     331.102E-03    -164.685E-03     6.79533E-03     331.767E-03     149.811E+06    -109.837E+06    -117.108E+06    -263.124E+06    -116.397E+06    -263.004E+06    -110.668E+06     2.88455E+06
            1534     105.768E-03     2.54409E-03     105.737E-03     330.669E-03    -164.439E-03    -166.230E-03    -165.460E-03     330.628E-03    -165.168E-03     8.91842E-03     331.824E-03     137.847E+06    -105.619E+06    -116.377E+06    -248.434E+06    -116.463E+06    -248.348E+06    -105.619E+06     898.645E+03
            1535     105.808E-03     3.39106E-03     105.753E-03     329.124E-03    -163.491E-03    -165.633E-03    -163.957E-03     329.053E-03    -165.096E-03     11.6157E-03     331.191E-03     126.762E+06    -97.2749E+06    -113.212E+06    -231.121E+06    -113.432E+06    -230.901E+06    -97.2749E+06     921.339E+03
            1536     105.859E-03     4.24118E-03     105.774E-03     327.559E-03    -162.757E-03    -164.801E-03    -162.626E-03     327.427E-03    -164.801E-03     15.8961E-03     330.592E-03     120.494E+06    -79.2850E+06    -105.040E+06    -210.440E+06    -105.272E+06    -210.208E+06    -79.2850E+06     1.94111E+06
            1537     105.919E-03     5.09242E-03     105.797E-03     326.930E-03    -162.460E-03    -164.470E-03    -162.257E-03     326.727E-03    -164.470E-03     19.8544E-03     330.863E-03     111.780E+06    -59.8032E+06    -97.3247E+06    -185.210E+06    -97.6205E+06    -184.915E+06    -59.8032E+06     4.11667E+06
            1538     105.999E-03     5.94260E-03     105.832E-03     327.118E-03    -162.739E-03    -164.379E-03    -162.576E-03     326.813E-03    -164.237E-03     24.2857E-03     332.386E-03     103.133E+06    -39.4575E+06    -88.0060E+06    -157.407E+06    -88.9952E+06    -156.417E+06    -39.4575E+06     7.33230E+06
            1539     106.082E-03     6.79436E-03     105.864E-03     328.082E-03    -163.461E-03    -164.620E-03    -163.466E-03     327.600E-03    -164.134E-03     30.4994E-03     335.067E-03     96.1399E+06    -20.6446E+06    -76.1121E+06    -130.878E+06    -80.8979E+06    -126.093E+06    -20.6446E+06     9.88992E+06
            1540     106.184E-03     7.64399E-03     105.908E-03     327.788E-03    -163.357E-03    -164.431E-03    -163.041E-03     327.128E-03    -164.087E-03     35.6979E-03     336.260E-03     86.3523E+06     5.33331E+06    -49.3418E+06    -93.8673E+06    -67.2786E+06    -75.9305E+06     5.33331E+06     16.1491E+06
            1541     106.289E-03     8.49340E-03     105.950E-03     326.333E-03    -162.389E-03    -163.944E-03    -161.493E-03     325.437E-03    -163.944E-03     41.3516E-03     336.883E-03     82.0040E+06     23.5005E+06    -26.9921E+06    -70.2231E+06    -60.7381E+06    -36.4771E+06     23.5005E+06     15.6027E+06
            1542     106.414E-03     9.34838E-03     106.002E-03     325.607E-03    -161.919E-03    -163.688E-03    -160.864E-03     324.552E-03    -163.688E-03     44.8165E-03     337.598E-03     84.0002E+06     32.7944E+06     4.59691E+06    -58.3382E+06    -55.8360E+06     2.33388E+06     32.5552E+06     11.0149E+06
            1543     106.546E-03     10.1993E-03     106.056E-03     326.599E-03    -162.164E-03    -164.435E-03    -161.451E-03     324.940E-03    -163.489E-03     55.4930E-03     342.287E-03     90.7796E+06     52.7945E+06     46.8442E+06    -40.6769E+06    -38.5564E+06     46.4720E+06     51.0462E+06     12.8006E+06
            1544     106.719E-03     11.0504E-03     106.145E-03     328.417E-03    -162.274E-03    -166.143E-03    -162.765E-03     326.190E-03    -163.425E-03     66.0741E-03     346.244E-03     94.8818E+06     63.9068E+06     56.1104E+06    -34.5256E+06    -32.0901E+06     55.1840E+06     62.3976E+06     14.5097E+06
            1545     106.878E-03     11.9002E-03     106.213E-03     331.152E-03    -162.885E-03    -168.267E-03    -164.683E-03     328.247E-03    -163.564E-03     75.3036E-03     349.782E-03     102.507E+06     80.7494E+06     51.9798E+06    -31.1832E+06    -26.4014E+06     47.1980E+06     80.7494E+06     16.2664E+06
            1546     107.061E-03     12.7494E-03     106.299E-03     336.902E-03    -163.868E-03    -173.034E-03    -169.169E-03     333.037E-03    -163.868E-03     88.4039E-03     361.236E-03     114.589E+06     97.8857E+06     69.1720E+06    -25.9930E+06    -21.5373E+06     64.7163E+06     97.8857E+06     10.8502E+06
            1547     107.245E-03     13.5960E-03     106.380E-03     346.565E-03    -164.494E-03    -182.071E-03    -177.196E-03     341.690E-03    -164.494E-03     100.654E-03     382.748E-03     118.973E+06     110.728E+06     82.0804E+06    -18.7252E+06    -15.3175E+06     78.6727E+06     110.728E+06     5.50731E+06
            1548     107.461E-03     14.4319E-03     106.488E-03     355.120E-03    -165.663E-03    -189.457E-03    -185.282E-03     350.945E-03    -165.663E-03     93.1438E-03     387.379E-03     154.184E+06     159.271E+06     113.236E+06    -12.3435E+06    -9.95270E+06     110.845E+06     159.271E+06     2.66669E+06
            1549     107.096E-03     839.975E-06     107.093E-03     335.173E-03    -166.271E-03    -168.902E-03    -167.181E-03     335.140E-03    -167.958E-03     5.87414E-03     335.712E-03     175.394E+06    -119.457E+06    -122.301E+06    -296.251E+06    -120.682E+06    -296.217E+06    -121.109E+06    -392.005E+03
            1550     107.123E-03     1.69226E-03     107.110E-03     332.143E-03    -164.843E-03    -167.300E-03    -165.124E-03     332.103E-03    -166.979E-03     7.27511E-03     332.787E-03     146.761E+06    -116.354E+06    -120.319E+06    -265.050E+06    -118.976E+06    -264.942E+06    -117.805E+06     2.66951E+06
            1551     107.156E-03     2.53952E-03     107.126E-03     329.335E-03    -163.271E-03    -166.063E-03    -163.223E-03     329.287E-03    -166.063E-03     9.64970E-03     330.494E-03     135.915E+06    -105.677E+06    -117.890E+06    -247.135E+06    -118.013E+06    -247.012E+06    -105.677E+06     3.79719E+06
            1552     107.195E-03     3.39219E-03     107.141E-03     327.365E-03    -162.128E-03    -165.237E-03    -162.050E-03     327.287E-03    -165.237E-03     12.1413E-03     329.310E-03     127.488E+06    -93.9272E+06    -116.196E+06    -230.974E+06    -116.334E+06    -230.836E+06    -93.9272E+06     1.50453E+06
            1553     107.242E-03     4.24340E-03     107.158E-03     327.233E-03    -162.565E-03    -164.668E-03    -162.426E-03     327.094E-03    -164.668E-03     16.3507E-03     330.217E-03     117.834E+06    -80.5260E+06    -111.618E+06    -210.504E+06    -111.720E+06    -210.402E+06    -80.5260E+06     437.969E+03
            1554     107.307E-03     5.09182E-03     107.186E-03     326.736E-03    -162.405E-03    -164.332E-03    -162.201E-03     326.532E-03    -164.332E-03     19.9352E-03     330.785E-03     111.169E+06    -65.1833E+06    -106.895E+06    -190.866E+06    -107.096E+06    -190.666E+06    -65.1833E+06     1.71247E+06
            1555     107.377E-03     5.94400E-03     107.212E-03     326.046E-03    -161.985E-03    -164.061E-03    -161.689E-03     325.750E-03    -164.061E-03     23.8993E-03     331.404E-03     104.197E+06    -43.5820E+06    -95.1189E+06    -163.066E+06    -95.9425E+06    -162.242E+06    -43.5820E+06     3.65434E+06
            1556     107.467E-03     6.79477E-03     107.252E-03     326.195E-03    -162.356E-03    -163.839E-03    -161.942E-03     325.781E-03    -163.839E-03     28.3641E-03     333.224E-03     95.5936E+06    -23.3658E+06    -84.3390E+06    -132.944E+06    -86.4902E+06    -130.793E+06    -23.3658E+06     5.19915E+06
            1557     107.564E-03     7.64510E-03     107.292E-03     325.926E-03    -162.257E-03    -163.668E-03    -161.802E-03     325.470E-03    -163.668E-03     29.7374E-03     334.089E-03     85.3703E+06    -4.35178E+06    -70.5217E+06    -99.3994E+06    -77.7534E+06    -92.1677E+06    -4.35178E+06     7.84850E+06
            1558     107.668E-03     8.49917E-03     107.332E-03     325.961E-03    -162.370E-03    -163.590E-03    -161.800E-03     325.349E-03    -163.550E-03     34.1063E-03     335.954E-03     84.8942E+06     25.2267E+06    -27.8556E+06    -69.4617E+06    -61.1816E+06    -36.1357E+06     25.2267E+06     14.3611E+06
            1559     107.794E-03     9.34685E-03     107.388E-03     326.575E-03    -162.910E-03    -163.665E-03    -162.412E-03     325.861E-03    -163.449E-03     37.3083E-03     338.287E-03     90.6973E+06     41.9719E+06     17.1369E+06    -57.5157E+06    -53.4940E+06     13.1151E+06     41.9719E+06     12.9620E+06
            1560     107.923E-03     10.1979E-03     107.440E-03     325.937E-03    -162.425E-03    -163.512E-03    -161.498E-03     324.834E-03    -163.336E-03     44.9607E-03     341.539E-03     94.8670E+06     47.4496E+06     39.5981E+06    -51.0114E+06    -49.9462E+06     40.0420E+06     45.9404E+06     9.64258E+06
            1561     108.088E-03     11.0544E-03     107.521E-03     324.155E-03    -160.965E-03    -163.190E-03    -159.595E-03     322.785E-03    -163.190E-03     49.6271E-03     342.142E-03     92.4123E+06     58.6248E+06     50.1673E+06    -37.6387E+06    -36.2793E+06     50.3170E+06     57.1157E+06     10.8036E+06
            1562     108.252E-03     11.9140E-03     107.594E-03     324.185E-03    -160.592E-03    -163.593E-03    -159.564E-03     322.613E-03    -163.048E-03     50.1788E-03     343.162E-03     93.3818E+06     71.7478E+06     57.0989E+06    -27.9202E+06    -23.8409E+06     54.5852E+06     70.1823E+06     12.4678E+06
            1563     108.439E-03     12.7701E-03     107.685E-03     329.489E-03    -162.232E-03    -167.258E-03    -164.207E-03     327.349E-03    -163.143E-03     59.9765E-03     352.564E-03     103.697E+06     92.4888E+06     71.2265E+06    -20.0121E+06    -14.8744E+06     67.6544E+06     90.9232E+06     10.4668E+06
            1564     108.642E-03     13.6148E-03     107.785E-03     343.823E-03    -163.773E-03    -180.049E-03    -176.844E-03     340.617E-03    -163.773E-03     79.0115E-03     377.482E-03     118.606E+06     109.188E+06     77.8706E+06    -21.7474E+06    -18.0721E+06     74.1953E+06     109.188E+06     10.5032E+06
            1565     108.889E-03     14.4399E-03     107.928E-03     358.641E-03    -165.158E-03    -193.483E-03    -190.115E-03     355.273E-03    -165.158E-03     85.1112E-03     388.977E-03     162.632E+06     159.204E+06     119.969E+06    -19.2134E+06    -17.1060E+06     117.861E+06     159.204E+06     9.62302E+06
            1566     108.493E-03     845.335E-06     108.490E-03     335.898E-03    -166.808E-03    -169.090E-03    -167.353E-03     335.849E-03    -168.496E-03     9.50170E-03     336.394E-03     157.400E+06    -133.359E+06    -136.112E+06    -292.112E+06    -134.541E+06    -292.010E+06    -135.034E+06    -3.30710E+06
            1567     108.516E-03     1.69046E-03     108.503E-03     331.693E-03    -164.143E-03    -167.550E-03    -164.499E-03     331.640E-03    -167.141E-03     10.0695E-03     332.381E-03     140.444E+06    -127.364E+06    -131.580E+06    -269.862E+06    -131.019E+06    -269.804E+06    -127.983E+06    -790.004E+03
            1568     108.543E-03     2.54261E-03     108.513E-03     328.003E-03    -162.129E-03    -165.875E-03    -162.078E-03     327.953E-03    -165.875E-03     9.82463E-03     329.231E-03     134.769E+06    -112.180E+06    -124.129E+06    -252.378E+06    -124.245E+06    -252.261E+06    -112.180E+06     3.09209E+06
            1569     108.577E-03     3.39307E-03     108.524E-03     326.797E-03    -161.869E-03    -164.929E-03    -161.777E-03     326.705E-03    -164.929E-03     13.1698E-03     328.739E-03     128.377E+06    -90.6024E+06    -116.956E+06    -229.900E+06    -117.191E+06    -229.666E+06    -90.6024E+06     5.03688E+06
            1570     108.630E-03     4.24270E-03     108.547E-03     326.870E-03    -162.468E-03    -164.403E-03    -162.314E-03     326.717E-03    -164.403E-03     17.1854E-03     329.829E-03     121.360E+06    -74.9759E+06    -113.813E+06    -210.864E+06    -114.072E+06    -210.605E+06    -74.9759E+06     4.60045E+06
            1571     108.688E-03     5.09493E-03     108.569E-03     327.092E-03    -162.899E-03    -164.193E-03    -162.736E-03     326.894E-03    -164.158E-03     19.6463E-03     331.190E-03     114.872E+06    -56.4717E+06    -106.341E+06    -187.625E+06    -106.629E+06    -187.337E+06    -56.4717E+06     2.97874E+06
            1572     108.761E-03     5.94417E-03     108.598E-03     327.183E-03    -163.118E-03    -164.065E-03    -162.888E-03     326.918E-03    -164.030E-03     22.6258E-03     332.765E-03     108.498E+06    -39.6740E+06    -97.0904E+06    -164.604E+06    -97.2968E+06    -164.398E+06    -39.6740E+06     8.35269E+03
            1573     108.847E-03     6.79490E-03     108.635E-03     326.418E-03    -162.519E-03    -163.898E-03    -162.178E-03     326.076E-03    -163.898E-03     25.6455E-03     333.852E-03     99.7548E+06    -23.5034E+06    -85.3763E+06    -138.164E+06    -86.8847E+06    -136.655E+06    -23.5034E+06     2.03930E+06
            1574     108.945E-03     7.64700E-03     108.677E-03     326.451E-03    -162.504E-03    -163.947E-03    -162.321E-03     326.089E-03    -163.768E-03     26.4970E-03     334.974E-03     87.9052E+06    -4.49083E+06    -73.1984E+06    -102.151E+06    -77.3003E+06    -98.0488E+06    -4.49083E+06     6.54027E+06
            1575     109.048E-03     8.49428E-03     108.717E-03     327.078E-03    -163.151E-03    -163.927E-03    -162.898E-03     326.605E-03    -163.707E-03     30.1435E-03     336.994E-03     82.5205E+06     16.5847E+06    -44.2050E+06    -74.6100E+06    -66.6991E+06    -52.1159E+06     16.5847E+06     11.1288E+06
            1576     109.175E-03     9.34662E-03     108.774E-03     327.264E-03    -163.366E-03    -163.898E-03    -162.950E-03     326.631E-03    -163.681E-03     35.0871E-03     339.122E-03     87.4394E+06     38.8526E+06     8.65414E+06    -56.9547E+06    -52.6653E+06     4.36471E+06     38.8526E+06     13.4599E+06
            1577     109.303E-03     10.1943E-03     108.827E-03     329.145E-03    -163.455E-03    -165.689E-03    -164.499E-03     328.226E-03    -163.727E-03     42.2356E-03     345.049E-03     97.6541E+06     52.4132E+06     44.9797E+06    -48.5892E+06    -46.7601E+06     43.1507E+06     52.4132E+06     12.5170E+06
            1578     109.459E-03     11.0403E-03     108.901E-03     330.442E-03    -162.837E-03    -167.605E-03    -165.615E-03     329.526E-03    -163.911E-03     41.9912E-03     348.788E-03     104.665E+06     63.4755E+06     57.7052E+06    -43.9222E+06    -42.5091E+06     57.6933E+06     62.0743E+06     11.8565E+06
            1579     109.622E-03     11.8856E-03     108.975E-03     329.019E-03    -162.295E-03    -166.723E-03    -164.283E-03     328.356E-03    -164.073E-03     35.5742E-03     347.806E-03     99.0262E+06     63.4200E+06     57.5387E+06    -38.3717E+06    -37.7643E+06     60.1726E+06     60.1787E+06     5.36117E+06
            1580     109.802E-03     12.7347E-03     109.061E-03     330.079E-03    -163.364E-03    -166.715E-03    -164.670E-03     328.945E-03    -164.275E-03     45.1587E-03     351.094E-03     99.4324E+06     68.4846E+06     56.6375E+06    -36.0015E+06    -33.4428E+06     55.9188E+06     66.6446E+06     10.7067E+06
            1581     110.026E-03     13.5836E-03     109.185E-03     338.530E-03    -164.758E-03    -173.772E-03    -170.967E-03     335.725E-03    -164.758E-03     72.9314E-03     367.271E-03     121.612E+06     101.638E+06     76.9809E+06    -30.2891E+06    -27.3052E+06     73.9970E+06     101.638E+06     15.5051E+06
            1582     110.295E-03     14.4281E-03     109.348E-03     345.750E-03    -165.617E-03    -180.133E-03    -176.842E-03     342.459E-03    -165.617E-03     82.1662E-03     372.917E-03     169.902E+06     172.377E+06     133.912E+06    -13.3771E+06    -12.7579E+06     133.293E+06     172.377E+06     6.73887E+06
            1583     109.895E-03     849.493E-06     109.892E-03     331.512E-03    -165.100E-03    -166.413E-03    -166.374E-03     331.474E-03    -165.100E-03     7.34531E-03     332.140E-03     151.853E+06    -129.346E+06    -137.403E+06    -285.024E+06    -136.652E+06    -284.921E+06    -130.199E+06    -2.18433E+06
            1584     109.908E-03     1.69521E-03     109.895E-03     330.260E-03    -164.350E-03    -165.910E-03    -164.738E-03     330.235E-03    -165.497E-03     6.07377E-03     330.885E-03     145.985E+06    -122.171E+06    -132.166E+06    -272.828E+06    -132.196E+06    -272.799E+06    -122.171E+06    -1.28224E+06
            1585     109.926E-03     2.54406E-03     109.897E-03     327.860E-03    -162.873E-03    -164.986E-03    -162.830E-03     327.816E-03    -164.986E-03     8.80426E-03     329.043E-03     140.132E+06    -110.853E+06    -126.722E+06    -258.160E+06    -126.786E+06    -258.095E+06    -110.853E+06     957.641E+03
            1586     109.964E-03     3.39504E-03     109.912E-03     327.399E-03    -162.908E-03    -164.492E-03    -162.823E-03     327.314E-03    -164.492E-03     12.6286E-03     329.453E-03     131.620E+06    -91.9048E+06    -118.694E+06    -234.651E+06    -118.897E+06    -234.448E+06    -91.9048E+06     3.83966E+06
            1587     110.011E-03     4.24673E-03     109.929E-03     327.492E-03    -163.230E-03    -164.262E-03    -163.109E-03     327.371E-03    -164.262E-03     15.0430E-03     330.539E-03     124.866E+06    -70.8241E+06    -109.737E+06    -210.395E+06    -110.001E+06    -210.131E+06    -70.8241E+06     4.80517E+06
            1588     110.075E-03     5.09483E-03     109.957E-03     327.961E-03    -163.740E-03    -164.220E-03    -163.618E-03     327.804E-03    -164.186E-03     17.3878E-03     332.065E-03     116.817E+06    -52.2184E+06    -102.078E+06    -185.407E+06    -102.941E+06    -184.544E+06    -52.2184E+06     6.98980E+06
            1589     110.146E-03     5.94349E-03     109.985E-03     328.185E-03    -163.950E-03    -164.236E-03    -163.766E-03     327.967E-03    -164.201E-03     20.5956E-03     333.841E-03     110.469E+06    -33.6633E+06    -96.6479E+06    -160.899E+06    -97.6605E+06    -159.887E+06    -33.6633E+06     6.07210E+06
            1590     110.231E-03     6.79137E-03     110.021E-03     327.598E-03    -163.422E-03    -164.176E-03    -163.126E-03     327.303E-03    -164.176E-03     23.9870E-03     335.047E-03     104.112E+06    -18.8956E+06    -88.4823E+06    -138.475E+06    -88.8351E+06    -138.122E+06    -18.8956E+06    -96.3408E+03
            1591     110.324E-03     7.64122E-03     110.059E-03     327.754E-03    -163.478E-03    -164.276E-03    -163.266E-03     327.364E-03    -164.098E-03     27.4856E-03     336.513E-03     90.0580E+06    -7.34259E+06    -77.0028E+06    -108.201E+06    -79.5410E+06    -105.663E+06    -7.34259E+06     1.38175E+06
            1592     110.437E-03     8.49147E-03     110.110E-03     328.824E-03    -163.775E-03    -165.049E-03    -164.250E-03     328.361E-03    -164.111E-03     30.1688E-03     338.968E-03     82.3083E+06     13.6036E+06    -46.3901E+06    -78.2588E+06    -69.9090E+06    -54.7399E+06     13.6036E+06     8.65192E+06
            1593     110.548E-03     9.33966E-03     110.152E-03     329.696E-03    -163.903E-03    -165.792E-03    -164.948E-03     329.166E-03    -164.218E-03     32.1592E-03     341.690E-03     88.9911E+06     34.5208E+06    -2.26724E+06    -65.1296E+06    -62.4940E+06    -4.90288E+06     34.5208E+06     11.2759E+06
            1594     110.691E-03     10.1921E-03     110.221E-03     332.004E-03    -164.317E-03    -167.687E-03    -166.794E-03     331.176E-03    -164.382E-03     39.9897E-03     347.555E-03     97.9128E+06     48.6239E+06     31.3210E+06    -56.3805E+06    -54.7317E+06     34.5106E+06     43.7854E+06     11.6552E+06
            1595     110.850E-03     11.0344E-03     110.300E-03     334.953E-03    -164.707E-03    -170.246E-03    -169.223E-03     333.930E-03    -164.707E-03     45.3424E-03     352.216E-03     104.137E+06     62.1559E+06     51.5853E+06    -46.6571E+06    -44.7690E+06     59.5843E+06     52.2688E+06     13.8451E+06
            1596     111.011E-03     11.8748E-03     110.374E-03     336.453E-03    -165.183E-03    -171.270E-03    -170.194E-03     335.377E-03    -165.183E-03     46.4717E-03     354.105E-03     107.633E+06     67.0442E+06     59.6777E+06    -43.9996E+06    -41.5943E+06     62.5954E+06     61.7212E+06     14.3518E+06
            1597     111.179E-03     12.7186E-03     110.449E-03     337.888E-03    -165.667E-03    -172.222E-03    -170.419E-03     336.086E-03    -165.667E-03     59.4465E-03     359.291E-03     106.005E+06     70.5588E+06     62.5107E+06    -39.1749E+06    -36.4649E+06     60.0752E+06     70.2843E+06     14.6159E+06
            1598     111.406E-03     13.5658E-03     110.577E-03     338.191E-03    -166.107E-03    -172.084E-03    -168.601E-03     334.708E-03    -166.107E-03     82.9916E-03     368.248E-03     118.172E+06     102.709E+06      84.491E+06    -23.4445E+06    -21.3924E+06     82.4390E+06     102.709E+06     9.05183E+06
            1599     111.676E-03     14.4152E-03     110.741E-03     332.503E-03    -162.687E-03    -169.816E-03    -162.411E-03     328.828E-03    -166.417E-03     84.5960E-03     361.268E-03     168.538E+06     177.737E+06     137.376E+06    -7.19767E+06    -6.47501E+06     136.653E+06     177.737E+06     2.69259E+06
            1600     111.287E-03     847.267E-06     111.283E-03     328.186E-03    -163.324E-03    -164.863E-03    -164.544E-03     328.155E-03    -163.611E-03     6.52899E-03     328.871E-03     154.216E+06    -125.854E+06    -137.982E+06    -285.750E+06    -133.786E+06    -285.724E+06    -130.076E+06     1.37061E+06
            1601     111.295E-03     1.69814E-03     111.282E-03     328.234E-03    -163.546E-03    -164.688E-03    -164.181E-03     328.224E-03    -164.043E-03     4.01527E-03     328.871E-03     147.824E+06    -118.388E+06    -130.891E+06    -272.022E+06    -130.929E+06    -271.984E+06    -118.388E+06     1.45516E+06
            1602     111.314E-03     2.54759E-03     111.285E-03     329.116E-03    -163.804E-03    -165.312E-03    -164.855E-03     329.088E-03    -164.233E-03     6.54238E-03     330.208E-03     141.462E+06    -108.357E+06    -127.424E+06    -258.333E+06    -127.445E+06    -258.312E+06    -108.357E+06     546.847E+03
            1603     111.350E-03     3.39559E-03     111.298E-03     329.284E-03    -164.169E-03    -165.115E-03    -164.783E-03     329.227E-03    -164.444E-03     10.3129E-03     331.201E-03     133.436E+06    -95.0483E+06    -121.304E+06    -239.573E+06    -121.357E+06    -239.520E+06    -95.0483E+06     1.19752E+06
            1604     111.400E-03     4.24174E-03     111.319E-03     329.547E-03    -164.459E-03    -165.088E-03    -164.862E-03     329.469E-03    -164.607E-03     12.4047E-03     332.535E-03     125.516E+06    -74.0083E+06    -111.866E+06    -213.818E+06    -112.068E+06    -213.616E+06    -74.0083E+06     3.64985E+06
            1605     111.459E-03     5.09177E-03     111.343E-03     328.691E-03    -163.782E-03    -164.909E-03    -163.925E-03     328.585E-03    -164.660E-03     14.3263E-03     332.855E-03     118.562E+06    -57.3627E+06    -105.525E+06    -192.288E+06    -106.427E+06    -191.385E+06    -57.3627E+06     3.59576E+06
            1606     111.534E-03     5.94088E-03     111.375E-03     327.403E-03    -162.851E-03    -164.552E-03    -162.663E-03     327.214E-03    -164.552E-03     18.8145E-03     333.033E-03     110.269E+06    -37.6694E+06    -94.5607E+06    -164.234E+06    -96.6922E+06    -162.102E+06    -37.6694E+06     7.20457E+06
            1607     111.613E-03     6.79185E-03     111.407E-03     328.553E-03    -163.536E-03    -165.017E-03    -163.759E-03     328.237E-03    -164.478E-03     24.8135E-03     335.690E-03     104.429E+06    -12.6637E+06    -83.5041E+06    -132.006E+06    -87.1826E+06    -128.327E+06    -12.6637E+06     8.92359E+06
            1608     111.710E-03     7.64029E-03     111.449E-03     330.112E-03    -164.422E-03    -165.690E-03    -165.201E-03     329.732E-03    -164.532E-03     27.1313E-03     338.506E-03     95.7132E+06    -126.061E+03    -80.5318E+06    -104.999E+06    -83.0152E+06    -102.516E+06    -126.061E+03     2.15968E+06
            1609     111.817E-03     8.48922E-03     111.494E-03     331.137E-03    -164.575E-03    -166.562E-03    -166.037E-03     330.697E-03    -164.660E-03     29.2370E-03     341.053E-03     84.0808E+06     10.3184E+06    -55.7448E+06    -81.3881E+06    -75.2285E+06    -61.9044E+06     10.3184E+06     3.70859E+06
            1610     111.943E-03     9.33393E-03     111.553E-03     333.123E-03    -164.893E-03    -168.230E-03    -167.682E-03     332.574E-03    -164.893E-03     32.9365E-03     344.585E-03     86.9626E+06     24.1404E+06    -12.0901E+06     -72.697E+06    -69.9885E+06    -14.7986E+06     24.1404E+06     10.6933E+06
            1611     112.070E-03     10.1729E-03     111.608E-03     334.029E-03    -165.153E-03    -168.876E-03    -167.941E-03     333.094E-03    -165.153E-03     42.1636E-03     348.414E-03     96.3279E+06     39.3517E+06     22.0034E+06    -64.1540E+06    -62.3670E+06     26.4462E+06     33.1218E+06     11.3682E+06
            1612     112.240E-03     11.0241E-03     111.697E-03     333.845E-03    -165.373E-03    -168.472E-03    -167.330E-03     332.703E-03    -165.373E-03     47.5263E-03     349.651E-03     103.618E+06     57.3937E+06     40.7828E+06    -53.2943E+06    -51.7370E+06     55.8364E+06     40.7828E+06     12.4100E+06
            1613     112.399E-03     11.8741E-03     111.770E-03     336.673E-03    -165.699E-03    -170.974E-03    -169.669E-03     335.368E-03    -165.699E-03     51.0721E-03     352.787E-03     107.330E+06     64.5510E+06     48.3628E+06    -49.7856E+06    -46.9514E+06     59.6734E+06     50.4062E+06     16.6849E+06
            1614     112.581E-03     12.7135E-03     111.861E-03     340.848E-03    -166.198E-03    -174.650E-03    -172.218E-03     338.415E-03    -166.198E-03     69.2459E-03     362.576E-03     103.722E+06     74.7665E+06     65.4987E+06    -33.2032E+06    -31.0766E+06     67.1358E+06     71.0028E+06     12.1541E+06
            1615     112.791E-03     13.5482E-03     111.974E-03     338.614E-03    -166.615E-03    -172.000E-03    -167.328E-03     333.942E-03    -166.615E-03     95.0470E-03     370.142E-03     120.178E+06     106.472E+06     90.2802E+06    -20.8068E+06    -19.9397E+06     89.4131E+06     106.472E+06     3.72157E+06
            1616     113.041E-03     14.4000E-03     112.120E-03     326.500E-03    -159.115E-03    -167.386E-03    -155.059E-03     321.669E-03    -166.610E-03     95.1947E-03     356.769E-03     174.657E+06     176.831E+06     138.940E+06    -13.5678E+06    -12.9198E+06     138.292E+06     176.831E+06     2.03341E+06
            1617     112.664E-03     850.985E-06     112.661E-03     327.152E-03    -162.276E-03    -164.876E-03    -163.123E-03     327.138E-03    -164.014E-03     1.37996E-03     327.741E-03     153.568E+06    -130.804E+06    -140.582E+06    -288.945E+06    -136.048E+06    -288.910E+06    -135.373E+06     570.507E+03
            1618     112.683E-03     1.70143E-03     112.670E-03     328.393E-03    -163.423E-03    -164.970E-03    -164.675E-03     328.386E-03    -163.711E-03     2.57844E-03     329.081E-03     146.769E+06    -125.493E+06    -133.330E+06    -275.969E+06    -133.056E+06    -275.896E+06    -125.840E+06     3.03091E+06
            1619     112.704E-03     2.54621E-03     112.675E-03     330.391E-03    -164.304E-03    -166.087E-03    -166.074E-03     330.378E-03    -164.304E-03     4.36291E-03     331.579E-03     139.945E+06    -111.123E+06    -128.629E+06    -258.870E+06    -128.763E+06    -258.736E+06    -111.123E+06     3.50088E+06
            1620     112.740E-03     3.39243E-03     112.688E-03     331.103E-03    -164.849E-03    -166.254E-03    -166.203E-03     331.052E-03    -164.849E-03     9.64809E-03     333.113E-03     133.457E+06    -95.4021E+06    -124.072E+06    -240.720E+06    -124.187E+06    -240.605E+06    -95.4021E+06     2.76966E+06
            1621     112.789E-03     4.24138E-03     112.709E-03     330.936E-03    -164.984E-03    -165.952E-03    -165.693E-03     330.846E-03    -165.153E-03     13.3405E-03     333.972E-03     125.166E+06    -79.6297E+06    -117.799E+06    -219.222E+06    -117.999E+06    -219.022E+06    -79.6297E+06     3.71053E+06
            1622     112.850E-03     5.08577E-03     112.736E-03     329.360E-03    -163.904E-03    -165.456E-03    -164.053E-03     329.259E-03    -165.207E-03     14.0588E-03     333.336E-03     118.309E+06    -58.5419E+06    -106.234E+06    -192.977E+06    -106.836E+06    -192.375E+06    -58.5419E+06     2.86890E+06
            1623     112.911E-03     5.93809E-03     112.755E-03     328.346E-03    -163.170E-03    -165.176E-03    -163.118E-03     328.178E-03    -165.060E-03     17.7363E-03     333.777E-03     111.409E+06    -41.4813E+06    -98.8260E+06    -169.481E+06    -100.392E+06    -167.914E+06    -41.4813E+06     4.23281E+06
            1624     113.000E-03     6.78965E-03     112.796E-03     329.809E-03    -164.176E-03    -165.632E-03    -164.555E-03     329.534E-03    -164.978E-03     23.2248E-03     336.850E-03     101.167E+06    -21.3922E+06    -88.1527E+06    -137.227E+06    -91.9516E+06    -133.429E+06    -21.3922E+06     9.79583E+06
            1625     113.101E-03     7.63496E-03     112.843E-03     331.539E-03    -165.053E-03    -166.486E-03    -166.109E-03     331.209E-03    -165.100E-03     25.4015E-03     339.319E-03     94.7976E+06     1.61575E+06    -73.5854E+06    -103.929E+06    -81.0507E+06    -96.4638E+06     1.61575E+06     10.0238E+06
            1626     113.204E-03     8.47835E-03     112.886E-03     332.343E-03    -165.256E-03    -167.088E-03    -166.565E-03     331.821E-03    -165.256E-03     31.4821E-03     342.209E-03     85.4198E+06     9.31638E+06    -62.5296E+06    -84.4642E+06    -76.9365E+06    -70.0572E+06     9.31638E+06     6.10501E+06
            1627     113.331E-03     9.32700E-03     112.946E-03     333.910E-03    -165.429E-03    -168.481E-03    -167.721E-03     333.150E-03    -165.429E-03     38.8379E-03     345.444E-03     79.5047E+06     19.3564E+06    -26.0358E+06    -68.7716E+06    -66.2758E+06    -28.5316E+06     19.3564E+06     9.08079E+06
            1628     113.467E-03     10.1769E-03     113.010E-03     335.416E-03    -165.684E-03    -169.732E-03    -168.652E-03     334.336E-03    -165.684E-03     46.1587E-03     349.504E-03     99.3332E+06     44.1480E+06     24.8707E+06    -62.5345E+06    -59.4904E+06     28.1688E+06     37.8059E+06     15.7537E+06
            1629     113.621E-03     11.0181E-03     113.086E-03     334.833E-03    -165.887E-03    -168.945E-03    -167.621E-03     333.508E-03    -165.887E-03     51.2650E-03     350.740E-03     111.952E+06     58.3676E+06     41.3433E+06    -60.9200E+06     -59.013E+06     56.4606E+06     41.3433E+06     14.0891E+06
            1630     113.787E-03     11.8632E-03     113.166E-03     334.667E-03    -166.019E-03    -168.648E-03    -166.982E-03     333.003E-03    -166.021E-03     57.1847E-03     351.588E-03     100.712E+06     61.2292E+06     41.2092E+06    -47.8875E+06    -46.7809E+06     60.1226E+06     41.2092E+06     9.26284E+06
            1631     113.973E-03     12.7121E-03     113.262E-03     334.741E-03    -165.109E-03    -169.631E-03    -165.731E-03     331.900E-03    -166.169E-03     74.4377E-03     357.110E-03     99.0753E+06     66.5248E+06     55.8411E+06    -37.1319E+06    -36.4853E+06     64.5323E+06     57.1869E+06     2.21034E+06
            1632     114.181E-03     13.5688E-03     113.372E-03     331.818E-03    -163.329E-03    -168.489E-03    -160.805E-03     327.036E-03    -166.230E-03     95.6213E-03     362.495E-03     124.765E+06     105.833E+06     92.3867E+06    -24.8752E+06    -24.3667E+06     91.8782E+06     105.833E+06     535.597E+03
            1633     114.409E-03     14.4285E-03     113.495E-03     326.079E-03    -159.647E-03    -166.432E-03    -155.364E-03     321.450E-03    -166.086E-03     92.7171E-03     355.963E-03     178.703E+06     186.668E+06     151.076E+06    -7.08161E+06    -6.63473E+06     150.629E+06     186.668E+06     1.48624E+06
            1634     114.054E-03     848.457E-06     114.051E-03     329.814E-03    -162.897E-03    -166.917E-03    -163.219E-03     329.807E-03    -166.588E-03    -1.82230E-03     330.380E-03     154.068E+06    -134.493E+06    -141.147E+06    -291.717E+06    -140.284E+06    -291.635E+06    -135.439E+06     1.60799E+06
            1635     114.070E-03     1.69430E-03     114.057E-03     329.553E-03    -164.159E-03    -165.394E-03    -164.771E-03     329.546E-03    -164.775E-03     2.43253E-03     330.180E-03     146.708E+06    -131.992E+06    -138.687E+06    -281.906E+06    -138.381E+06    -281.865E+06    -132.339E+06     1.66879E+06
            1636     114.096E-03     2.54490E-03     114.068E-03     330.451E-03    -164.487E-03    -165.964E-03    -165.512E-03     330.424E-03    -164.913E-03     6.40851E-03     331.752E-03     139.742E+06    -116.718E+06    -131.138E+06    -262.985E+06    -131.316E+06    -262.807E+06    -116.718E+06     3.87672E+06
            1637     114.130E-03     3.39228E-03     114.080E-03     331.819E-03    -165.248E-03    -166.571E-03    -166.510E-03     331.758E-03    -165.248E-03     10.8565E-03     333.966E-03     132.226E+06    -99.1782E+06    -126.682E+06    -242.792E+06    -126.909E+06    -242.564E+06    -99.1782E+06      5.0784E+06
            1638     114.182E-03     4.23683E-03     114.103E-03     330.729E-03    -164.704E-03    -166.025E-03    -165.175E-03     330.639E-03    -165.464E-03     13.3586E-03     333.822E-03     124.684E+06    -80.9463E+06    -119.824E+06    -220.233E+06    -119.987E+06    -220.070E+06    -80.9463E+06     3.98864E+06
            1639     114.236E-03     5.08925E-03     114.122E-03     329.983E-03    -164.307E-03    -165.676E-03    -164.421E-03     329.869E-03    -165.448E-03     14.9299E-03     333.978E-03     118.158E+06    -59.1763E+06    -109.198E+06    -193.811E+06    -109.664E+06    -193.346E+06    -59.1763E+06     5.61453E+06
            1640     114.300E-03     5.93516E-03     114.146E-03     331.715E-03    -165.108E-03    -166.607E-03    -165.995E-03     331.485E-03    -165.490E-03     20.6306E-03     337.282E-03     111.037E+06    -39.4228E+06    -100.049E+06    -167.338E+06    -100.650E+06    -166.736E+06    -39.4228E+06     5.34368E+06
            1641     114.389E-03     6.77871E-03     114.188E-03     332.124E-03    -165.565E-03    -166.559E-03    -166.175E-03     331.787E-03    -165.612E-03     25.6597E-03     339.386E-03     100.310E+06    -27.3451E+06    -93.0396E+06    -142.628E+06    -93.7437E+06    -141.924E+06    -27.3451E+06     4.45557E+06
            1642     114.487E-03     7.62969E-03     114.232E-03     330.528E-03    -164.602E-03    -165.926E-03    -164.507E-03     330.147E-03    -165.640E-03     27.3187E-03     338.346E-03     91.4297E+06    -10.0623E+06    -77.8836E+06    -113.876E+06    -84.4878E+06    -107.272E+06    -10.0623E+06     10.0862E+06
            1643     114.596E-03     8.48106E-03     114.282E-03     331.500E-03    -164.632E-03    -166.868E-03    -165.212E-03     330.835E-03    -165.623E-03     35.7070E-03     341.834E-03     86.1454E+06     11.2421E+06    -59.6043E+06    -84.3761E+06    -73.2320E+06    -70.7484E+06     11.2421E+06     10.9247E+06
            1644     114.717E-03     9.32658E-03     114.337E-03     334.034E-03    -165.701E-03    -168.333E-03    -167.376E-03     333.077E-03    -165.701E-03     43.7584E-03     346.159E-03     84.6322E+06     25.5297E+06    -28.7025E+06    -68.9500E+06    -65.7595E+06    -31.8931E+06     25.5297E+06     10.0818E+06
            1645     114.861E-03     10.1681E-03     114.410E-03     334.494E-03    -165.840E-03    -168.655E-03    -167.397E-03     333.237E-03    -165.840E-03     49.5872E-03     348.903E-03     95.3497E+06     43.9677E+06     17.6244E+06    -61.0934E+06    -57.9531E+06     19.4348E+06     39.0170E+06     15.8483E+06
            1646     115.010E-03     11.0167E-03     114.481E-03     334.343E-03    -165.937E-03    -168.405E-03    -166.683E-03     332.621E-03    -165.937E-03     58.1747E-03     350.966E-03     109.493E+06     68.3931E+06     47.1791E+06    -50.0119E+06    -47.2722E+06     62.1034E+06     50.7291E+06     17.1905E+06
            1647     115.176E-03     11.8646E-03     114.563E-03     332.460E-03    -165.244E-03    -167.216E-03    -164.318E-03     330.267E-03    -165.949E-03     65.7625E-03     350.547E-03     105.222E+06     76.0370E+06     56.4855E+06    -37.2249E+06    -35.4821E+06     73.0301E+06     57.7495E+06     3.35623E+06
            1648     115.350E-03     12.7159E-03     114.647E-03     329.439E-03    -163.611E-03    -165.828E-03    -160.406E-03     326.234E-03    -165.828E-03     78.4854E-03     352.976E-03     99.5482E+06     77.4390E+06     66.4013E+06    -26.8666E+06    -25.9388E+06     71.0476E+06     71.8648E+06    -4.36928E+06
            1649     115.551E-03     13.5694E-03     114.752E-03     328.921E-03    -162.298E-03    -166.623E-03    -159.083E-03     324.737E-03    -165.654E-03     90.1439E-03     360.635E-03     124.401E+06     109.691E+06     96.5435E+06    -20.6565E+06    -20.4133E+06     96.3004E+06     109.691E+06    -1.79914E+06
            1650     115.770E-03     14.4274E-03     114.868E-03     327.946E-03    -161.384E-03    -166.563E-03    -158.742E-03     324.336E-03    -165.594E-03     83.2971E-03     358.280E-03     179.336E+06     181.566E+06     148.957E+06    -11.6489E+06    -11.5632E+06     148.872E+06     181.566E+06    -2.60427E+06
            1651     115.447E-03     845.621E-06     115.444E-03     330.544E-03    -163.489E-03    -167.055E-03    -164.802E-03     330.531E-03    -165.729E-03     2.98670E-03     331.070E-03     154.190E+06    -139.434E+06    -144.032E+06    -295.846E+06    -142.027E+06    -295.771E+06    -141.515E+06     2.65944E+06
            1652     115.459E-03     1.69590E-03     115.446E-03     330.363E-03    -164.548E-03    -165.816E-03    -165.179E-03     330.343E-03    -165.164E-03     5.94890E-03     330.950E-03     146.288E+06    -133.340E+06    -141.085E+06    -283.291E+06    -141.108E+06    -283.267E+06    -133.340E+06     1.36875E+06
            1653     115.483E-03     2.54418E-03     115.455E-03     331.362E-03    -164.882E-03    -166.479E-03    -166.010E-03     331.318E-03    -165.308E-03     9.21851E-03     332.641E-03     139.749E+06    -122.037E+06    -136.621E+06    -268.436E+06    -136.701E+06    -268.356E+06    -122.037E+06     2.27918E+06
            1654     115.527E-03     3.39037E-03     115.478E-03     331.528E-03    -165.145E-03    -166.382E-03    -165.929E-03     331.469E-03    -165.540E-03     10.6831E-03     333.541E-03     131.453E+06    -103.990E+06    -129.057E+06    -246.014E+06    -129.205E+06    -245.866E+06    -103.990E+06     3.93184E+06
            1655     115.569E-03     4.23955E-03     115.492E-03     330.485E-03    -164.622E-03    -165.862E-03    -164.807E-03     330.415E-03    -165.607E-03     11.5977E-03     333.324E-03     124.340E+06    -82.2059E+06    -120.783E+06    -221.012E+06    -120.943E+06    -220.852E+06    -82.2059E+06     3.93815E+06
            1656     115.622E-03     5.08651E-03     115.511E-03     330.804E-03    -164.982E-03    -165.822E-03    -165.096E-03     330.678E-03    -165.583E-03     15.4734E-03     334.891E-03     118.256E+06    -62.4780E+06    -112.327E+06    -197.353E+06    -112.553E+06    -197.127E+06    -62.4780E+06     4.16312E+06
            1657     115.695E-03     5.93466E-03     115.543E-03     332.479E-03    -165.668E-03    -166.810E-03    -166.508E-03     332.186E-03    -165.679E-03     23.5892E-03     338.341E-03     110.729E+06    -43.8894E+06    -101.923E+06    -171.377E+06    -102.323E+06    -170.977E+06    -43.8894E+06     4.79587E+06
            1658     115.782E-03     6.78179E-03     115.583E-03     332.494E-03    -165.701E-03    -166.793E-03    -166.242E-03     332.073E-03    -165.831E-03     28.9780E-03     339.654E-03     103.009E+06    -24.7268E+06    -91.9851E+06    -142.949E+06    -92.4468E+06    -142.488E+06    -24.7268E+06     4.58313E+06
            1659     115.874E-03     7.62588E-03     115.623E-03     330.825E-03    -164.714E-03    -166.111E-03    -164.514E-03     330.349E-03    -165.835E-03     30.5006E-03     338.866E-03     94.6273E+06    -8.28881E+06    -81.7813E+06    -114.810E+06    -83.4530E+06    -113.138E+06    -8.28881E+06     5.04314E+06
            1660     115.975E-03     8.47687E-03     115.664E-03     331.500E-03    -164.770E-03    -166.730E-03    -164.913E-03     330.674E-03    -165.761E-03     39.5576E-03     342.332E-03     87.2128E+06     9.44619E+06    -65.2982E+06      -86.29E+06    -73.7043E+06    -77.8839E+06     9.44619E+06     6.37906E+06
            1661     116.117E-03     9.32481E-03     115.742E-03     331.801E-03    -164.545E-03    -167.256E-03    -165.009E-03     330.726E-03    -165.717E-03     46.0818E-03     343.862E-03     85.9616E+06     29.7094E+06    -30.2436E+06    -65.9499E+06    -62.5276E+06    -33.6659E+06     29.7094E+06     9.97701E+06
            1662     116.243E-03     10.1754E-03     115.797E-03     331.079E-03    -164.439E-03    -166.639E-03    -163.895E-03     329.506E-03    -165.611E-03     54.8584E-03     345.405E-03     90.7776E+06     46.0329E+06     18.4357E+06    -53.1181E+06    -50.6027E+06     15.9203E+06     46.0329E+06     11.4396E+06
            1663     116.400E-03     11.0252E-03     115.877E-03     331.689E-03    -165.478E-03    -166.211E-03    -164.115E-03     329.593E-03    -165.478E-03     64.4201E-03     348.606E-03     104.163E+06     71.6535E+06      55.812E+06    -39.1614E+06    -37.8271E+06     65.2141E+06     60.9170E+06     9.52094E+06
            1664     116.560E-03     11.8746E-03     115.954E-03     329.961E-03    -164.092E-03    -165.868E-03    -162.417E-03     327.794E-03    -165.377E-03     65.1832E-03     347.860E-03     114.334E+06     88.7027E+06     71.7295E+06    -32.7874E+06    -31.0403E+06     85.6916E+06     72.9935E+06     3.84730E+06
            1665     116.724E-03     12.7295E-03     116.028E-03     329.247E-03    -163.513E-03    -165.734E-03    -160.949E-03     326.201E-03    -165.252E-03     76.3139E-03     352.417E-03     107.597E+06     88.0398E+06     72.6367E+06    -26.2830E+06    -24.5975E+06     75.9239E+06     83.0671E+06    -2.71410E+06
            1666     116.930E-03     13.5866E-03     116.138E-03     331.125E-03    -164.490E-03    -166.635E-03    -161.819E-03     327.003E-03    -165.184E-03     89.7975E-03     362.374E-03     123.488E+06     113.399E+06     98.8505E+06    -16.5418E+06    -15.6969E+06     98.0056E+06     113.399E+06    -5.27067E+06
            1667     117.155E-03     14.4303E-03     116.263E-03     330.485E-03    -163.517E-03    -166.968E-03    -161.552E-03     326.844E-03    -165.292E-03     84.1350E-03     359.626E-03     178.645E+06     180.248E+06     151.809E+06    -10.5379E+06    -9.94716E+06     151.218E+06     180.248E+06    -733.797E+03
            1668     116.836E-03     851.712E-06     116.833E-03     328.453E-03    -162.662E-03    -165.791E-03    -165.777E-03     328.438E-03    -162.662E-03     1.71133E-03     329.030E-03     152.135E+06    -144.993E+06    -148.066E+06    -298.634E+06    -146.602E+06    -298.617E+06    -146.475E+06     292.959E+03
            1669     116.847E-03     1.69804E-03     116.835E-03     330.782E-03    -164.584E-03    -166.199E-03    -166.164E-03     330.748E-03    -164.584E-03     6.79452E-03     331.481E-03     146.190E+06    -135.379E+06    -142.550E+06    -284.946E+06    -142.585E+06    -284.910E+06    -135.379E+06     1.97161E+06
            1670     116.880E-03     2.54205E-03     116.852E-03     332.003E-03    -165.256E-03    -166.747E-03    -166.674E-03     331.930E-03    -165.256E-03     11.8380E-03     333.329E-03     139.579E+06    -123.046E+06    -139.502E+06    -270.056E+06    -139.537E+06    -270.021E+06    -123.046E+06     1.66260E+06
            1671     116.916E-03     3.38927E-03     116.867E-03     331.418E-03    -165.186E-03    -166.232E-03    -165.767E-03     331.347E-03    -165.580E-03     11.6357E-03     333.346E-03     131.272E+06    -105.700E+06    -131.225E+06    -247.740E+06    -131.267E+06    -247.698E+06    -105.700E+06     1.66499E+06
            1672     116.959E-03     4.23771E-03     116.882E-03     331.200E-03    -165.275E-03    -165.924E-03    -165.455E-03     331.125E-03    -165.670E-03     11.9386E-03     333.826E-03     123.625E+06    -86.1833E+06    -122.862E+06    -223.806E+06    -122.946E+06    -223.721E+06    -86.1833E+06     2.83108E+06
            1673     117.014E-03     5.08583E-03     116.903E-03     331.754E-03    -165.743E-03    -166.011E-03    -165.860E-03     331.613E-03    -165.754E-03     16.4472E-03     335.818E-03     118.167E+06    -66.2821E+06    -114.817E+06    -200.821E+06    -114.921E+06    -200.717E+06    -66.2821E+06     1.51818E+06
            1674     117.084E-03     5.93309E-03     116.933E-03     331.565E-03    -165.446E-03    -166.119E-03    -165.449E-03     331.276E-03    -165.827E-03     23.5904E-03     337.504E-03     112.380E+06    -44.7029E+06    -104.335E+06    -174.040E+06    -104.434E+06    -173.941E+06    -44.7029E+06     596.158E+03
            1675     117.173E-03     6.78082E-03     116.977E-03     330.529E-03    -164.607E-03    -165.923E-03    -164.367E-03     330.159E-03    -165.792E-03     26.9788E-03     337.458E-03     105.925E+06    -23.0485E+06    -92.6462E+06    -144.665E+06    -92.8454E+06    -144.466E+06    -23.0485E+06     1.42010E+06
            1676     117.260E-03     7.63341E-03     117.011E-03     330.994E-03    -164.904E-03    -166.091E-03    -164.760E-03     330.478E-03    -165.718E-03     31.4909E-03     339.242E-03     99.3353E+06    -2.67207E+06    -80.4130E+06    -114.118E+06    -80.6594E+06    -113.872E+06    -2.67207E+06     655.585E+03
            1677     117.368E-03     8.47731E-03     117.062E-03     331.676E-03    -165.435E-03    -166.241E-03    -165.030E-03     330.704E-03    -165.674E-03     43.4323E-03     342.904E-03     91.3910E+06     16.3153E+06    -64.6834E+06    -82.5369E+06    -68.1649E+06    -79.0555E+06     16.3153E+06     1.72959E+06
            1678     117.498E-03     9.32621E-03     117.128E-03     328.737E-03    -163.033E-03    -165.705E-03    -162.140E-03     327.649E-03    -165.510E-03     46.0756E-03     340.479E-03     85.6274E+06     34.6050E+06    -35.4522E+06    -59.7040E+06    -55.9944E+06    -39.1618E+06     34.6050E+06     4.41195E+06
            1679     117.622E-03     10.1810E-03     117.180E-03     327.255E-03    -162.029E-03    -165.227E-03    -160.477E-03     325.646E-03    -165.170E-03     54.6363E-03     341.494E-03     91.0837E+06     54.2917E+06     16.4462E+06    -46.0957E+06    -44.5874E+06     14.9379E+06     54.2917E+06     6.80598E+06
            1680     117.788E-03     11.0322E-03     117.270E-03     328.341E-03    -163.445E-03    -164.896E-03    -161.359E-03     326.187E-03    -164.827E-03     64.9062E-03     345.616E-03     107.531E+06     77.0485E+06     59.5088E+06    -37.7912E+06    -37.1701E+06     68.3034E+06     67.6328E+06     6.34680E+06
            1681     117.939E-03     11.8836E-03     117.338E-03     329.808E-03    -163.614E-03    -166.194E-03    -163.103E-03     327.778E-03    -164.675E-03     63.2440E-03     347.773E-03     115.258E+06     92.0164E+06     76.1898E+06    -30.1154E+06    -29.6435E+06     91.5445E+06     76.1898E+06     5.66001E+06
            1682     118.103E-03     12.7337E-03     117.415E-03     332.142E-03    -164.163E-03    -167.979E-03    -164.705E-03     329.450E-03    -164.745E-03     72.5947E-03     355.373E-03     116.123E+06     95.0763E+06     80.3382E+06    -27.5467E+06    -26.6685E+06     88.5354E+06     86.0008E+06     1.43598E+06
            1683     118.309E-03     13.5775E-03     117.527E-03     331.714E-03    -164.642E-03    -167.073E-03    -163.311E-03     328.191E-03    -164.881E-03     83.4134E-03     363.326E-03     132.169E+06     109.958E+06     94.1125E+06    -29.2157E+06    -28.0803E+06     95.6416E+06     107.293E+06    -1.66929E+06
            1684     118.523E-03     14.4423E-03     117.640E-03     332.457E-03    -164.861E-03    -167.597E-03    -164.089E-03     329.189E-03    -165.100E-03     80.3155E-03     362.034E-03     178.079E+06     167.728E+06     146.447E+06    -19.5823E+06    -18.3248E+06     145.190E+06     167.728E+06    -11.3688E+03
            1685     118.223E-03     848.210E-06     118.220E-03     328.792E-03    -163.107E-03    -165.686E-03    -164.954E-03     328.778E-03    -163.824E-03     1.42355E-03     329.365E-03     150.256E+06    -149.151E+06    -152.408E+06    -300.994E+06    -152.421E+06    -300.981E+06    -149.151E+06     341.439E+03
            1686     118.239E-03     1.69622E-03     118.227E-03     330.047E-03    -164.445E-03    -165.602E-03    -165.427E-03     330.008E-03    -164.581E-03     6.82480E-03     330.793E-03     143.404E+06    -139.625E+06    -147.693E+06    -286.859E+06    -147.720E+06    -286.832E+06    -139.625E+06     721.181E+03
            1687     118.271E-03     2.54594E-03     118.243E-03     330.400E-03    -164.789E-03    -165.611E-03    -165.395E-03     330.320E-03    -164.925E-03     12.4955E-03     331.693E-03     137.673E+06    -124.175E+06    -140.615E+06    -269.240E+06    -140.640E+06    -269.215E+06    -124.175E+06     177.284E+03
            1688     118.308E-03     3.39286E-03     118.260E-03     331.067E-03    -165.159E-03    -165.909E-03    -165.820E-03     330.979E-03    -165.159E-03     13.1580E-03     332.953E-03     130.474E+06    -106.588E+06    -133.589E+06    -248.299E+06    -133.622E+06    -248.266E+06    -106.588E+06    -413.524E+03
            1689     118.350E-03     4.23864E-03     118.274E-03     331.995E-03    -165.433E-03    -166.562E-03    -166.441E-03     331.874E-03    -165.433E-03     15.3195E-03     334.803E-03     123.793E+06    -86.3492E+06    -124.595E+06    -224.560E+06    -124.697E+06    -224.458E+06    -86.3492E+06    -664.493E+03
            1690     118.406E-03     5.08497E-03     118.297E-03     332.690E-03    -165.725E-03    -166.966E-03    -166.773E-03     332.498E-03    -165.725E-03     19.3646E-03     336.954E-03     119.519E+06    -63.1326E+06    -113.695E+06    -199.413E+06    -113.848E+06    -199.260E+06    -63.1326E+06    -2.14430E+06
            1691     118.475E-03     5.93153E-03     118.327E-03     331.824E-03    -165.332E-03    -166.491E-03    -165.645E-03     331.536E-03    -165.891E-03     23.7103E-03     337.641E-03     114.828E+06    -40.8006E+06    -103.002E+06    -173.050E+06    -103.231E+06    -172.821E+06    -40.8006E+06    -3.49051E+06
            1692     118.558E-03     6.78181E-03     118.364E-03     330.153E-03    -164.310E-03    -165.843E-03    -163.983E-03     329.825E-03    -165.843E-03     25.3487E-03     336.722E-03     108.549E+06    -19.4190E+06    -91.2480E+06    -143.986E+06    -91.7617E+06    -143.473E+06    -19.4190E+06    -3.98502E+06
            1693     118.646E-03     7.62938E-03     118.401E-03     329.512E-03    -163.684E-03    -165.828E-03    -163.357E-03     329.031E-03    -165.674E-03     30.2660E-03     337.741E-03     102.557E+06     943.121E+03    -78.7768E+06    -114.379E+06    -79.6005E+06    -113.556E+06     943.121E+03    -4.57879E+06
            1694     118.759E-03     8.48126E-03     118.456E-03     328.756E-03    -163.156E-03    -165.600E-03    -162.414E-03     327.860E-03    -165.446E-03     41.5180E-03     340.156E-03     96.0329E+06     20.2367E+06    -64.3063E+06    -83.7905E+06    -67.3126E+06    -80.7842E+06     20.2367E+06    -3.66685E+06
            1695     118.878E-03     9.33229E-03     118.511E-03     327.662E-03    -162.506E-03    -165.157E-03    -161.486E-03     326.642E-03    -165.157E-03     44.5861E-03     339.703E-03     89.0387E+06     37.8864E+06    -38.7245E+06    -59.0864E+06    -55.6687E+06    -42.1422E+06     37.8864E+06    -2.29089E+06
            1696     119.002E-03     10.1828E-03     118.565E-03     326.896E-03    -162.073E-03    -164.824E-03    -160.644E-03     325.468E-03    -164.824E-03     51.6641E-03     342.223E-03     88.4504E+06     53.6034E+06     6.17542E+06    -45.4215E+06    -44.9101E+06     5.66396E+06     53.6034E+06     2.34500E+06
            1697     119.161E-03     11.0402E-03     118.648E-03     325.710E-03    -161.268E-03    -164.442E-03    -159.472E-03     323.914E-03    -164.442E-03     58.5190E-03     344.071E-03     104.605E+06     79.3913E+06     52.5292E+06    -35.9535E+06    -34.9903E+06     64.6905E+06     66.2668E+06     8.74489E+06
            1698     119.322E-03     11.8945E-03     118.728E-03     326.994E-03    -161.319E-03    -165.675E-03    -160.802E-03     324.970E-03    -164.168E-03     62.1906E-03     346.338E-03     117.457E+06     97.4662E+06     75.3374E+06    -29.2514E+06    -28.6597E+06     96.8745E+06     75.3374E+06     7.11088E+06
            1699     119.495E-03     12.7370E-03     118.814E-03     331.778E-03    -163.140E-03    -168.638E-03    -164.340E-03     328.529E-03    -164.189E-03     79.5449E-03     358.255E-03     117.913E+06     101.502E+06     85.4417E+06    -23.3924E+06    -23.1453E+06     96.8633E+06     89.8330E+06     4.68259E+06
            1700     119.686E-03     13.5908E-03     118.911E-03     337.059E-03    -164.478E-03    -172.581E-03    -168.430E-03     332.909E-03    -164.478E-03     91.4063E-03     371.894E-03     132.764E+06     112.512E+06     98.7830E+06    -26.4064E+06    -25.7230E+06     101.574E+06     109.038E+06     4.15874E+06
            1701     119.900E-03     14.4288E-03     119.029E-03     337.422E-03    -164.965E-03    -172.457E-03    -168.805E-03     333.770E-03    -164.965E-03     85.5566E-03     369.618E-03     179.179E+06     158.908E+06     142.320E+06    -27.7354E+06    -26.7289E+06     142.123E+06     158.098E+06    -194.861E+03
            1702     119.616E-03     848.459E-06     119.613E-03     329.108E-03    -163.274E-03    -165.835E-03    -163.454E-03     329.089E-03    -165.635E-03     4.58669E-03     329.660E-03     150.277E+06    -151.035E+06    -153.432E+06    -302.477E+06    -153.471E+06    -302.438E+06    -151.035E+06     1.32995E+06
            1703     119.626E-03     1.69649E-03     119.614E-03     329.522E-03    -164.430E-03    -165.092E-03    -164.915E-03     329.481E-03    -164.566E-03     8.44831E-03     330.194E-03     140.314E+06    -141.800E+06    -149.724E+06    -285.852E+06    -149.741E+06    -285.836E+06    -141.800E+06    -763.462E+03
            1704     119.660E-03     2.54441E-03     119.633E-03     329.389E-03    -164.349E-03    -165.040E-03    -164.628E-03     329.323E-03    -164.695E-03     11.4302E-03     330.482E-03     133.705E+06    -126.687E+06    -144.081E+06    -268.124E+06    -144.168E+06    -268.037E+06    -126.687E+06    -2.12402E+06
            1705     119.697E-03     3.39406E-03     119.649E-03     329.801E-03    -164.580E-03    -165.221E-03    -164.929E-03     329.719E-03    -164.790E-03     12.6874E-03     331.613E-03     127.789E+06    -106.140E+06    -135.805E+06    -245.964E+06    -135.959E+06    -245.810E+06    -106.140E+06    -3.38359E+06
            1706     119.744E-03     4.24235E-03     119.668E-03     331.220E-03    -165.016E-03    -166.205E-03    -166.071E-03     331.087E-03    -165.016E-03     16.0910E-03     334.279E-03     121.941E+06    -83.9413E+06    -126.259E+06    -221.187E+06    -126.583E+06    -220.863E+06    -83.9413E+06    -4.99548E+06
            1707     119.799E-03     5.08807E-03     119.691E-03     332.381E-03    -165.345E-03    -167.036E-03    -166.792E-03     332.137E-03    -165.345E-03     21.8336E-03     336.928E-03     118.218E+06    -61.6407E+06    -115.605E+06    -196.995E+06    -116.192E+06    -196.408E+06    -61.6407E+06    -6.37780E+06
            1708     119.868E-03     5.93393E-03     119.722E-03     332.391E-03    -165.434E-03    -166.957E-03    -166.452E-03     332.074E-03    -165.622E-03     25.1177E-03     338.185E-03     114.354E+06    -39.0589E+06    -103.815E+06    -170.821E+06    -104.855E+06    -169.781E+06    -39.0589E+06    -7.47328E+06
            1709     119.944E-03     6.78009E-03     119.752E-03     330.777E-03    -164.650E-03    -166.127E-03    -164.693E-03     330.398E-03    -165.705E-03     27.2484E-03     337.456E-03     109.151E+06    -17.9336E+06    -91.9707E+06    -142.980E+06    -93.6189E+06    -141.332E+06    -17.9336E+06    -8.55268E+06
            1710     120.036E-03     7.62994E-03     119.794E-03     328.649E-03    -163.100E-03    -165.549E-03    -162.553E-03     328.102E-03    -165.549E-03     32.5493E-03     337.209E-03     103.722E+06     1.33048E+06    -79.8043E+06    -115.252E+06    -82.8772E+06    -112.179E+06     1.33048E+06    -8.79846E+06
            1711     120.134E-03     8.48151E-03     119.834E-03     327.350E-03    -162.113E-03    -165.236E-03    -161.278E-03     326.515E-03    -165.236E-03     40.1315E-03     338.834E-03     97.4849E+06     18.6959E+06    -65.3206E+06    -88.0154E+06    -72.4004E+06    -80.9357E+06     18.6959E+06    -8.67343E+06
            1712     120.263E-03     9.33605E-03     119.900E-03     327.830E-03    -162.892E-03    -164.938E-03    -161.992E-03     326.930E-03    -164.938E-03     41.8679E-03     340.295E-03     90.8869E+06     34.4847E+06    -40.9660E+06    -65.7626E+06    -61.5878E+06    -45.1408E+06     34.4847E+06    -6.68148E+06
            1713     120.383E-03     10.1861E-03     119.951E-03     328.635E-03    -163.766E-03    -164.869E-03    -162.782E-03     327.524E-03    -164.743E-03     46.1417E-03     344.589E-03     87.5284E+06     48.1285E+06    -3.60953E+06    -50.9495E+06    -50.4783E+06    -4.08067E+06     48.1285E+06    -2.78529E+06
            1714     120.536E-03     11.0326E-03     120.030E-03     326.497E-03    -161.864E-03    -164.633E-03    -160.623E-03     325.130E-03    -164.507E-03     51.5139E-03     345.440E-03     100.182E+06     72.9358E+06     41.9563E+06    -38.4512E+06    -37.9571E+06     54.1870E+06     60.2110E+06     2.40122E+06
            1715     120.691E-03     11.8875E-03     120.104E-03     323.335E-03    -159.169E-03    -164.166E-03    -157.628E-03     321.794E-03    -164.166E-03     53.3029E-03     342.777E-03     116.615E+06     100.559E+06     71.7939E+06    -27.6868E+06    -26.6746E+06     99.5469E+06     71.7939E+06     8.26284E+06
            1716     120.870E-03     12.7569E-03     120.194E-03     326.291E-03    -160.646E-03    -165.645E-03    -159.736E-03     323.684E-03    -163.948E-03     68.9292E-03     351.604E-03     117.393E+06     102.603E+06     79.1957E+06    -24.4490E+06    -23.4731E+06     97.2355E+06     83.5871E+06     10.1415E+06
            1717     121.079E-03     13.6015E-03     120.313E-03     334.589E-03    -163.618E-03    -170.971E-03    -166.473E-03     330.567E-03    -164.094E-03     89.0818E-03     366.725E-03     129.353E+06     115.512E+06     104.066E+06    -19.0647E+06    -17.7916E+06     106.577E+06     111.728E+06     7.28240E+06
            1718     121.307E-03     14.4423E-03     120.444E-03     338.616E-03    -164.637E-03    -173.980E-03    -169.989E-03     334.625E-03    -164.637E-03     89.8123E-03     368.573E-03     177.023E+06     174.246E+06     150.573E+06    -13.0558E+06    -11.9617E+06     150.288E+06     173.437E+06     4.09463E+06
            1719     120.995E-03     849.593E-06     120.992E-03     327.200E-03    -161.046E-03    -166.154E-03    -164.457E-03     327.147E-03    -162.690E-03     8.23084E-03     327.790E-03     145.243E+06    -153.919E+06    -156.089E+06    -300.231E+06    -155.300E+06    -300.096E+06    -154.843E+06    -1.59180E+06
            1720     121.022E-03     1.69838E-03     121.010E-03     329.731E-03    -163.907E-03    -165.825E-03    -165.769E-03     329.676E-03    -163.907E-03     10.2696E-03     330.368E-03     134.716E+06    -144.617E+06    -151.951E+06    -282.766E+06    -152.010E+06    -282.706E+06    -144.617E+06    -2.12196E+06
            1721     121.045E-03     2.54523E-03     121.019E-03     330.088E-03    -164.361E-03    -165.727E-03    -165.456E-03     330.027E-03    -164.571E-03     10.8925E-03     331.157E-03     127.432E+06    -127.659E+06    -146.718E+06    -263.397E+06    -146.889E+06    -263.227E+06    -127.659E+06    -3.93651E+06
            1722     121.086E-03     3.39373E-03     121.039E-03     329.698E-03    -164.464E-03    -165.234E-03    -164.812E-03     329.624E-03    -164.812E-03     12.1085E-03     331.472E-03     121.832E+06    -106.908E+06    -138.821E+06    -241.334E+06    -139.195E+06    -240.959E+06    -106.908E+06    -5.78071E+06
            1723     121.132E-03     4.24157E-03     121.058E-03     329.739E-03    -164.533E-03    -165.206E-03    -164.725E-03     329.629E-03    -164.905E-03     14.5219E-03     332.684E-03     117.379E+06    -84.3406E+06    -129.241E+06    -217.308E+06    -129.861E+06    -216.688E+06    -84.3406E+06    -7.08112E+06
            1724     121.190E-03     5.09082E-03     121.083E-03     330.258E-03    -164.563E-03    -165.695E-03    -165.033E-03     330.033E-03    -164.999E-03     20.7663E-03     334.924E-03     114.185E+06    -61.5915E+06    -118.549E+06    -192.844E+06    -119.734E+06    -191.659E+06    -61.5915E+06    -8.90612E+06
            1725     121.261E-03     5.93820E-03     121.115E-03     330.831E-03    -164.817E-03    -166.014E-03    -165.384E-03     330.502E-03    -165.118E-03     25.5238E-03     336.768E-03     110.527E+06    -40.2522E+06    -107.210E+06    -167.572E+06    -109.217E+06    -165.565E+06    -40.2522E+06    -10.5610E+06
            1726     121.335E-03     6.78512E-03     121.146E-03     330.244E-03    -164.515E-03    -165.729E-03    -164.658E-03     329.849E-03    -165.191E-03     27.8412E-03     337.341E-03     106.677E+06    -20.0865E+06    -95.5302E+06    -141.920E+06    -98.6346E+06    -138.816E+06    -20.0865E+06    -11.1071E+06
            1727     121.416E-03     7.63556E-03     121.176E-03     329.455E-03    -164.009E-03    -165.447E-03    -163.759E-03     328.913E-03    -165.153E-03     32.4886E-03     338.626E-03     101.768E+06    -1.74417E+06    -83.1145E+06    -115.562E+06    -88.4565E+06    -110.220E+06    -1.74417E+06    -11.1852E+06
            1728     121.522E-03     8.48509E-03     121.226E-03     329.610E-03    -163.994E-03    -165.615E-03    -163.786E-03     328.851E-03    -165.066E-03     38.5337E-03     341.318E-03     96.4605E+06     14.5783E+06    -67.4687E+06    -91.6334E+06    -78.4925E+06    -80.6097E+06     14.5783E+06    -10.9345E+06
            1729     121.639E-03     9.33235E-03     121.281E-03     329.299E-03    -163.955E-03    -165.343E-03    -163.482E-03     328.453E-03    -164.971E-03     40.7392E-03     342.471E-03     91.6522E+06     29.0218E+06    -42.1367E+06    -73.8373E+06    -68.5632E+06    -47.4108E+06     29.0218E+06    -9.87756E+06
            1730     121.773E-03     10.1814E-03     121.346E-03     328.695E-03    -163.727E-03    -164.968E-03    -162.781E-03     327.623E-03    -164.842E-03     45.5297E-03     344.673E-03     88.5924E+06     41.5551E+06    -8.56199E+06    -59.7141E+06    -58.3188E+06    -9.95732E+06     41.5551E+06    -7.32017E+06
            1731     121.913E-03     11.0337E-03     121.413E-03     328.413E-03    -163.208E-03    -165.205E-03    -162.366E-03     327.030E-03    -164.664E-03     52.0922E-03     347.798E-03     102.130E+06     63.7455E+06     31.9759E+06    -49.8006E+06    -49.4969E+06     44.1372E+06     51.2804E+06    -2.85870E+06
            1732     122.068E-03     11.8849E-03     121.488E-03     328.110E-03    -161.885E-03    -166.225E-03    -162.250E-03     326.764E-03    -164.514E-03     51.1639E-03     348.126E-03     117.622E+06     88.3361E+06     56.4154E+06    -41.7884E+06    -41.2378E+06     87.7855E+06     56.4154E+06     4.05226E+06
            1733     122.229E-03     12.7271E-03     121.565E-03     326.744E-03    -161.027E-03    -165.717E-03    -160.287E-03     324.709E-03    -164.422E-03     61.3539E-03     350.963E-03     120.142E+06     96.7326E+06     64.3387E+06    -35.7914E+06    -34.6736E+06     95.6147E+06     64.3387E+06     10.2718E+06
            1734     122.457E-03     13.5892E-03     121.701E-03     326.662E-03    -161.816E-03    -164.845E-03    -158.948E-03     323.309E-03    -164.361E-03     80.2692E-03     358.083E-03     131.190E+06     117.225E+06     95.1532E+06    -23.1344E+06    -21.7996E+06     112.619E+06     98.4237E+06     11.2155E+06
            1735     122.678E-03     14.4541E-03     121.824E-03     331.063E-03    -162.856E-03    -168.208E-03    -163.107E-03     327.675E-03    -164.568E-03     81.4855E-03     359.160E-03     176.443E+06     182.858E+06     150.960E+06    -7.19366E+06    -6.35701E+06     155.986E+06     176.995E+06     5.24203E+06
            1736     122.386E-03     853.391E-06     122.383E-03     326.441E-03    -160.457E-03    -165.984E-03    -165.929E-03     326.386E-03    -160.457E-03     9.56910E-03     327.043E-03     135.834E+06    -156.815E+06    -160.627E+06    -294.503E+06    -159.888E+06    -294.319E+06    -157.739E+06    -2.46945E+06
            1737     122.408E-03     1.69833E-03     122.397E-03     330.631E-03    -163.808E-03    -166.823E-03    -166.776E-03     330.584E-03    -163.808E-03     9.36044E-03     331.168E-03     127.226E+06    -146.680E+06    -155.786E+06    -278.150E+06    -155.909E+06    -278.028E+06    -146.680E+06    -3.47997E+06
            1738     122.438E-03     2.54578E-03     122.412E-03     331.339E-03    -164.864E-03    -166.475E-03    -166.441E-03     331.305E-03    -164.864E-03     7.91692E-03     332.420E-03     120.414E+06    -129.904E+06    -149.436E+06    -258.741E+06    -149.652E+06    -258.525E+06    -129.904E+06    -4.58639E+06
            1739     122.475E-03     3.39148E-03     122.428E-03     330.340E-03    -164.778E-03    -165.562E-03    -165.077E-03     330.288E-03    -165.210E-03     9.75338E-03     332.116E-03     115.181E+06    -108.419E+06    -141.367E+06    -236.266E+06    -141.804E+06    -235.829E+06    -108.419E+06    -6.11739E+06
            1740     122.520E-03     4.24071E-03     122.447E-03     329.450E-03    -164.243E-03    -165.207E-03    -164.158E-03     329.365E-03    -165.207E-03     12.8174E-03     332.221E-03     111.651E+06    -85.1475E+06    -131.449E+06    -212.283E+06    -132.271E+06    -211.461E+06    -85.1475E+06    -7.75783E+06
            1741     122.577E-03     5.08945E-03     122.471E-03     328.726E-03    -163.641E-03    -165.085E-03    -163.479E-03     328.563E-03    -165.085E-03     17.4402E-03     333.154E-03     108.678E+06    -62.6082E+06    -120.927E+06    -187.740E+06    -122.331E+06    -186.336E+06    -62.6082E+06    -9.26834E+06
            1742     122.648E-03     5.94027E-03     122.504E-03     327.761E-03    -162.866E-03    -164.895E-03    -162.628E-03     327.523E-03    -164.895E-03     21.3207E-03     333.363E-03     105.707E+06    -41.5962E+06    -110.116E+06    -163.092E+06    -112.610E+06    -160.597E+06    -41.5962E+06    -10.7943E+06
            1743     122.723E-03     6.79111E-03     122.535E-03     328.836E-03    -163.645E-03    -165.191E-03    -163.750E-03     328.513E-03    -164.762E-03     24.9335E-03     335.643E-03     102.659E+06    -22.7341E+06    -98.8426E+06    -139.255E+06    -103.017E+06    -135.080E+06    -22.7341E+06    -11.9048E+06
            1744     122.805E-03     7.63685E-03     122.568E-03     331.095E-03    -164.827E-03    -166.268E-03    -165.794E-03     330.621E-03    -164.827E-03     30.5442E-03     339.960E-03     98.5171E+06    -5.42941E+06    -84.9890E+06    -115.572E+06    -93.0189E+06    -107.542E+06    -5.42941E+06    -12.4023E+06
            1745     122.908E-03     8.48359E-03     122.615E-03     331.423E-03    -164.974E-03    -166.448E-03    -165.737E-03     330.711E-03    -164.974E-03     37.3493E-03     342.726E-03     94.4075E+06     9.89134E+06    -68.3489E+06    -94.9625E+06    -83.2731E+06    -80.0383E+06     9.89134E+06    -12.1833E+06
            1746     123.029E-03     9.33157E-03     122.674E-03     330.081E-03    -164.607E-03    -165.474E-03    -164.213E-03     329.224E-03    -165.012E-03     41.1061E-03     342.956E-03     90.7324E+06     23.2763E+06    -43.5848E+06    -79.2743E+06    -74.2716E+06    -48.5876E+06     23.2763E+06    -11.0874E+06
            1747     123.149E-03     10.1829E-03     122.728E-03     328.918E-03    -163.909E-03    -165.008E-03    -162.963E-03     327.881E-03    -164.919E-03     44.8862E-03     343.882E-03     89.4156E+06     34.7614E+06    -11.9602E+06    -67.5102E+06    -65.6978E+06    -13.7725E+06     34.7614E+06    -9.20827E+06
            1748     123.295E-03     11.0344E-03     122.801E-03     329.828E-03    -164.190E-03    -165.639E-03    -163.717E-03     328.511E-03    -164.794E-03     50.9217E-03     347.770E-03     99.1092E+06     50.9227E+06     24.1154E+06    -58.1405E+06    -57.6279E+06     32.2244E+06     42.3011E+06    -3.13657E+06
            1749     123.453E-03     11.8804E-03     122.880E-03     331.023E-03    -164.224E-03    -166.799E-03    -164.770E-03     329.518E-03    -164.749E-03     54.5973E-03     350.341E-03     115.480E+06      74.782E+06     42.8132E+06    -52.6632E+06    -52.2540E+06     74.3727E+06     42.8132E+06     4.55297E+06
            1750     123.621E-03     12.7298E-03     122.964E-03     329.489E-03    -163.071E-03    -166.418E-03    -162.329E-03     327.066E-03    -164.737E-03     67.9542E-03     353.068E-03     118.513E+06     91.4555E+06     46.9908E+06    -42.7742E+06    -42.0304E+06     90.7117E+06     46.9908E+06     6.74719E+06
            1751     123.806E-03     13.5806E-03     123.059E-03     329.080E-03    -162.645E-03    -166.435E-03    -160.020E-03     324.733E-03    -164.713E-03     90.6930E-03     362.239E-03     128.104E+06     115.880E+06     82.8220E+06    -24.9565E+06    -24.5686E+06     115.492E+06     82.8220E+06     1.92123E+06
            1752     124.061E-03     14.4278E-03     123.219E-03     326.406E-03    -160.286E-03    -166.120E-03    -157.427E-03     322.210E-03    -164.783E-03     88.2618E-03     356.850E-03     176.119E+06     183.712E+06     150.740E+06    -6.54449E+06    -6.38268E+06     162.519E+06     171.771E+06    -1.30155E+06
            1753     123.771E-03     848.124E-06     123.768E-03     331.862E-03    -164.224E-03    -167.639E-03    -166.403E-03     331.836E-03    -165.433E-03     6.59360E-03     332.397E-03     129.065E+06    -157.385E+06    -161.067E+06    -288.240E+06    -160.597E+06    -288.078E+06    -158.016E+06    -2.07981E+06
            1754     123.802E-03     1.69678E-03     123.790E-03     331.971E-03    -164.506E-03    -167.466E-03    -166.051E-03     331.952E-03    -165.901E-03     5.92523E-03     332.476E-03     122.299E+06    -146.483E+06    -156.414E+06    -273.365E+06    -156.559E+06    -273.220E+06    -146.483E+06    -3.59553E+06
            1755     123.833E-03     2.54037E-03     123.806E-03     331.477E-03    -164.752E-03    -166.725E-03    -165.516E-03     331.460E-03    -165.944E-03     5.64159E-03     332.488E-03     115.749E+06    -130.033E+06    -150.709E+06    -254.572E+06    -150.936E+06    -254.345E+06    -130.033E+06    -4.55261E+06
            1756     123.863E-03     3.38972E-03     123.817E-03     330.313E-03    -164.494E-03    -165.819E-03    -164.461E-03     330.269E-03    -165.808E-03     8.80359E-03     332.022E-03     109.968E+06    -109.209E+06    -142.672E+06    -231.798E+06    -143.114E+06    -231.356E+06    -109.209E+06    -5.83502E+06
            1757     123.910E-03     4.23772E-03     123.838E-03     329.611E-03    -164.019E-03    -165.592E-03    -163.927E-03     329.519E-03    -165.592E-03     13.2812E-03     332.402E-03     105.438E+06    -86.6100E+06    -133.649E+06    -207.099E+06    -134.449E+06    -206.299E+06    -86.6100E+06    -7.27501E+06
            1758     123.964E-03     5.08645E-03     123.860E-03     328.643E-03    -163.285E-03    -165.358E-03    -163.136E-03     328.493E-03    -165.358E-03     16.9266E-03     332.873E-03     102.107E+06    -64.4331E+06    -123.954E+06    -182.036E+06    -125.443E+06    -180.547E+06    -64.4331E+06    -8.64790E+06
            1759     124.031E-03     5.93650E-03     123.889E-03     327.313E-03    -162.245E-03    -165.068E-03    -162.064E-03     327.132E-03    -165.068E-03     18.8377E-03     332.422E-03     99.8813E+06    -43.7603E+06    -113.223E+06    -157.993E+06    -115.920E+06    -155.295E+06    -43.7603E+06    -10.2515E+06
            1760     124.103E-03     6.78926E-03     123.918E-03     328.003E-03    -162.861E-03    -165.142E-03    -162.889E-03     327.718E-03    -164.829E-03     23.2244E-03     334.307E-03     97.9454E+06    -24.9012E+06    -100.410E+06    -135.503E+06    -105.725E+06    -130.189E+06    -24.9012E+06    -11.8443E+06
            1761     124.201E-03     7.63902E-03     123.965E-03     330.006E-03    -164.075E-03    -165.931E-03    -164.776E-03     329.559E-03    -164.783E-03     29.6547E-03     338.212E-03     95.0408E+06    -8.41001E+06    -85.7935E+06    -114.452E+06    -95.5922E+06    -104.654E+06    -8.41001E+06    -12.7819E+06
            1762     124.295E-03     8.48402E-03     124.005E-03     330.569E-03    -164.573E-03    -165.996E-03    -164.988E-03     329.833E-03    -164.845E-03     37.6957E-03     341.212E-03     92.1226E+06     6.45161E+06    -68.0244E+06    -96.4164E+06    -85.7513E+06    -78.6896E+06     6.45161E+06    -12.9980E+06
            1763     124.413E-03     9.33368E-03     124.063E-03     330.015E-03    -164.768E-03    -165.246E-03    -164.233E-03     329.091E-03    -164.858E-03     42.6544E-03     342.183E-03     89.1035E+06     19.9487E+06    -44.1282E+06    -81.2743E+06    -75.7415E+06    -49.6610E+06     19.9487E+06    -12.1466E+06
            1764     124.534E-03     10.1807E-03     124.117E-03     330.690E-03    -164.748E-03    -165.943E-03    -164.649E-03     329.487E-03    -164.837E-03     48.0503E-03     345.260E-03     87.3827E+06     31.2411E+06    -13.9897E+06    -68.4408E+06    -66.1070E+06    -16.3235E+06     31.2411E+06    -10.1389E+06
            1765     124.678E-03     11.0274E-03     124.189E-03     330.739E-03    -164.560E-03    -166.179E-03    -164.321E-03     329.128E-03    -164.807E-03     56.0617E-03     348.237E-03     89.3588E+06     41.3341E+06     16.0880E+06    -57.3627E+06    -56.6626E+06     18.5888E+06     38.1332E+06    -5.22834E+06
            1766     124.838E-03     11.8787E-03     124.272E-03     328.494E-03    -163.486E-03    -165.008E-03    -162.026E-03     326.694E-03    -164.668E-03     59.1826E-03     347.179E-03     102.776E+06     68.5499E+06     34.9968E+06    -46.0127E+06    -45.5376E+06     62.8762E+06     40.1954E+06     1.85982E+06
            1767     124.993E-03     12.7336E-03     124.343E-03     329.541E-03    -163.622E-03    -165.919E-03    -162.385E-03     326.943E-03    -164.557E-03     70.8050E-03     351.960E-03     114.286E+06     97.7840E+06     50.4316E+06    -32.5184E+06    -31.9818E+06     97.2475E+06     50.4316E+06     310.377E+03
            1768     125.194E-03     13.5854E-03     124.454E-03     331.117E-03    -163.799E-03    -167.318E-03    -161.853E-03     326.471E-03    -164.619E-03     94.3045E-03     363.858E-03     129.026E+06     121.460E+06     89.4079E+06    -19.7140E+06    -19.4752E+06     121.221E+06     89.4079E+06    -5.28863E+06
            1769     125.430E-03     14.4451E-03     124.595E-03     326.053E-03    -160.009E-03    -166.044E-03    -156.826E-03     321.533E-03    -164.707E-03     91.8599E-03     357.180E-03     175.615E+06     180.949E+06     150.861E+06    -7.68047E+06    -7.46741E+06     160.502E+06     171.096E+06    -5.61797E+06
            1770     125.166E-03     839.930E-06     125.163E-03     337.335E-03    -167.687E-03    -169.648E-03    -167.639E-03     337.287E-03    -169.648E-03     8.63987E-03     337.951E-03     123.690E+06    -157.289E+06    -161.114E+06    -282.843E+06    -160.631E+06    -282.695E+06    -157.921E+06    -1.93961E+06
            1771     125.196E-03     1.68653E-03     125.185E-03     332.118E-03    -164.382E-03    -167.735E-03    -164.316E-03     332.052E-03    -167.735E-03     9.83822E-03     332.736E-03     116.843E+06    -147.243E+06    -157.532E+06    -268.774E+06    -157.654E+06    -268.652E+06    -147.243E+06    -3.08955E+06
            1772     125.222E-03     2.54008E-03     125.196E-03     330.288E-03    -163.789E-03    -166.500E-03    -163.723E-03     330.223E-03    -166.500E-03     10.1937E-03     331.319E-03     111.118E+06    -129.438E+06    -151.346E+06    -249.724E+06    -151.623E+06    -249.447E+06    -129.438E+06    -4.54481E+06
            1773     125.255E-03     3.38808E-03     125.209E-03     330.397E-03    -164.454E-03    -165.943E-03    -164.384E-03     330.327E-03    -165.943E-03     11.4445E-03     332.095E-03     104.966E+06    -109.478E+06    -143.832E+06    -227.083E+06    -144.324E+06    -226.590E+06    -109.478E+06    -5.94046E+06
            1774     125.297E-03     4.23802E-03     125.225E-03     329.386E-03    -163.728E-03    -165.657E-03    -163.619E-03     329.276E-03    -165.657E-03     14.5460E-03     332.111E-03     100.026E+06    -87.7478E+06    -135.065E+06    -202.378E+06    -136.010E+06    -201.433E+06    -87.7478E+06    -7.27412E+06
            1775     125.353E-03     5.08782E-03     125.250E-03     328.570E-03    -163.199E-03    -165.372E-03    -163.027E-03     328.398E-03    -165.372E-03     18.3188E-03     332.469E-03     96.6636E+06    -65.2653E+06    -124.375E+06    -176.554E+06    -126.014E+06    -174.914E+06    -65.2653E+06    -8.57967E+06
            1776     125.414E-03     5.93750E-03     125.274E-03     328.924E-03    -163.693E-03    -165.230E-03    -163.533E-03     328.700E-03    -165.167E-03     20.9224E-03     333.749E-03     95.3343E+06    -44.2022E+06    -112.430E+06    -153.015E+06    -115.354E+06    -150.091E+06    -44.2022E+06    -10.0404E+06
            1777     125.491E-03     6.78440E-03     125.307E-03     328.790E-03    -163.684E-03    -165.105E-03    -163.411E-03     328.452E-03    -165.042E-03     25.4265E-03     335.112E-03     94.3943E+06    -25.0273E+06    -99.1198E+06    -131.212E+06    -104.948E+06    -125.384E+06    -25.0273E+06    -11.7098E+06
            1778     125.582E-03     7.63447E-03     125.350E-03     327.620E-03    -162.749E-03    -164.872E-03    -162.288E-03     327.160E-03    -164.872E-03     29.9664E-03     335.715E-03     92.8789E+06    -8.06080E+06    -83.4981E+06    -111.737E+06    -94.6016E+06    -100.634E+06    -8.06080E+06    -13.2242E+06
            1779     125.683E-03     8.48879E-03     125.396E-03     327.779E-03    -162.883E-03    -164.896E-03    -162.373E-03     327.042E-03    -164.669E-03     37.4733E-03     338.406E-03     91.2336E+06     7.36888E+06    -64.1119E+06    -95.2664E+06    -83.7096E+06    -75.6688E+06     7.36888E+06    -14.3354E+06
            1780     125.798E-03     9.33644E-03     125.451E-03     328.863E-03    -164.028E-03    -164.836E-03    -163.349E-03     327.884E-03    -164.535E-03     43.8975E-03     341.114E-03     88.8914E+06     21.0573E+06    -41.9376E+06    -80.3358E+06    -72.9579E+06    -49.3156E+06     21.0573E+06    -14.6915E+06
            1781     125.919E-03     10.1879E-03     125.506E-03     329.874E-03    -164.385E-03    -165.488E-03    -163.955E-03     328.425E-03    -164.471E-03     52.7528E-03     344.633E-03     87.0643E+06     33.0372E+06    -14.0625E+06    -66.4127E+06    -62.0977E+06    -18.3775E+06     33.0372E+06    -13.4182E+06
            1782     126.069E-03     11.0363E-03     125.585E-03     329.403E-03    -164.063E-03    -165.340E-03    -163.152E-03     327.549E-03    -164.396E-03     60.3742E-03     346.802E-03     83.6659E+06     40.9618E+06     11.8483E+06    -52.8952E+06    -50.7095E+06     9.66259E+06     40.9618E+06    -10.4372E+06
            1783     126.209E-03     11.8884E-03     125.648E-03     328.474E-03    -163.595E-03    -164.879E-03    -162.200E-03     326.453E-03    -164.253E-03     62.8180E-03     347.325E-03     97.9432E+06     70.6194E+06     36.2541E+06    -39.6200E+06    -38.4427E+06     58.5585E+06     47.1377E+06    -8.81948E+06
            1784     126.378E-03     12.7390E-03     125.735E-03     329.915E-03    -163.770E-03    -166.144E-03    -162.815E-03     326.996E-03    -164.181E-03     75.3488E-03     354.308E-03     116.445E+06     104.131E+06     58.9710E+06    -28.0526E+06    -27.3907E+06     103.470E+06     58.9710E+06    -8.73652E+06
            1785     126.573E-03     13.5867E-03     125.841E-03     329.974E-03    -163.442E-03    -166.532E-03    -161.382E-03     325.644E-03    -164.262E-03     91.8331E-03     364.265E-03     131.231E+06     123.707E+06     93.1934E+06    -19.2988E+06    -18.8258E+06     123.234E+06     93.1934E+06    -8.08115E+06
            1786     126.788E-03     14.4417E-03     125.963E-03     327.901E-03    -162.514E-03    -165.388E-03    -159.315E-03     323.741E-03    -164.426E-03     89.3256E-03     359.840E-03     174.332E+06     176.246E+06     146.161E+06    -11.0363E+06    -10.8382E+06     154.798E+06     167.411E+06    -4.44802E+06
            1787     126.577E-03     847.227E-06     126.574E-03     333.205E-03    -165.730E-03    -167.475E-03    -165.686E-03     333.160E-03    -167.475E-03     8.26375E-03     333.811E-03     117.656E+06    -156.647E+06    -161.731E+06    -276.749E+06    -161.016E+06    -276.640E+06    -157.472E+06    -1.34884E+06
            1788     126.582E-03     1.69511E-03     126.570E-03     329.926E-03    -163.735E-03    -166.191E-03    -163.820E-03     329.827E-03    -166.007E-03     13.0051E-03     330.590E-03     111.733E+06    -145.851E+06    -156.759E+06    -262.566E+06    -156.927E+06    -262.398E+06    -145.851E+06    -3.32127E+06
            1789     126.611E-03     2.54341E-03     126.586E-03     329.443E-03    -163.787E-03    -165.656E-03    -164.006E-03     329.312E-03    -165.306E-03     15.9895E-03     330.600E-03     106.390E+06    -129.194E+06    -150.701E+06    -244.511E+06    -151.032E+06    -244.180E+06    -129.194E+06    -4.91322E+06
            1790     126.647E-03     3.39179E-03     126.601E-03     329.864E-03    -164.575E-03    -165.289E-03    -164.621E-03     329.745E-03    -165.123E-03     15.1967E-03     331.679E-03     100.877E+06    -108.208E+06    -142.935E+06    -221.600E+06    -143.455E+06    -221.080E+06    -108.208E+06    -5.95111E+06
            1791     126.686E-03     4.23821E-03     126.615E-03     328.886E-03    -163.851E-03    -165.036E-03    -163.689E-03     328.725E-03    -165.036E-03     17.3105E-03     331.716E-03     95.9703E+06    -86.3314E+06    -133.368E+06    -196.515E+06    -134.441E+06    -195.442E+06    -86.3314E+06    -7.61584E+06
            1792     126.737E-03     5.08883E-03     126.635E-03     328.533E-03    -163.620E-03    -164.913E-03    -163.387E-03     328.271E-03    -164.884E-03     22.2227E-03     332.501E-03     93.9064E+06    -64.2578E+06    -121.623E+06    -172.479E+06    -123.854E+06    -170.248E+06    -64.2578E+06    -9.79817E+06
            1793     126.805E-03     5.93785E-03     126.666E-03     329.433E-03    -164.443E-03    -164.990E-03    -164.275E-03     329.097E-03    -164.821E-03     25.5058E-03     334.441E-03     93.4344E+06    -42.5790E+06    -108.784E+06    -149.296E+06    -112.424E+06    -145.657E+06    -42.5790E+06    -11.1117E+06
            1794     126.879E-03     6.78692E-03     126.697E-03     329.159E-03    -164.204E-03    -164.955E-03    -163.912E-03     328.727E-03    -164.815E-03     29.0514E-03     335.811E-03     93.0013E+06    -22.0962E+06    -94.5575E+06    -126.898E+06    -101.206E+06    -120.249E+06    -22.0962E+06    -12.4478E+06
            1795     126.966E-03     7.63667E-03     126.736E-03     327.093E-03    -162.415E-03    -164.678E-03    -161.865E-03     326.543E-03    -164.678E-03     32.7018E-03     335.135E-03     93.1638E+06    -3.32758E+06    -77.3729E+06    -107.899E+06    -90.0727E+06    -95.1995E+06    -3.32758E+06    -14.4917E+06
            1796     127.061E-03     8.48674E-03     126.778E-03     326.130E-03    -161.732E-03    -164.398E-03    -160.877E-03     325.276E-03    -164.398E-03     40.2276E-03     336.645E-03      92.803E+06     12.5191E+06    -57.6866E+06    -92.5141E+06    -79.2746E+06    -70.9260E+06     12.5191E+06    -16.5074E+06
            1797     127.183E-03     9.34195E-03     126.839E-03     326.660E-03    -162.523E-03    -164.137E-03    -161.461E-03     325.596E-03    -164.135E-03     45.4920E-03     338.780E-03     91.8005E+06     26.6982E+06    -36.3372E+06    -78.3667E+06    -68.4681E+06    -46.2358E+06     26.6982E+06    -17.4833E+06
            1798     127.302E-03     10.1900E-03     126.894E-03     326.801E-03    -162.877E-03    -163.924E-03    -161.379E-03     325.300E-03    -163.922E-03     53.3562E-03     341.175E-03     90.0517E+06     38.8149E+06    -11.4302E+06    -64.5678E+06    -57.6212E+06    -18.3768E+06     38.8149E+06    -17.4437E+06
            1799     127.447E-03     11.0445E-03     126.968E-03     327.591E-03    -163.296E-03    -164.295E-03    -161.946E-03     325.690E-03    -163.744E-03     60.9127E-03     344.756E-03     87.0929E+06     46.7191E+06     13.3531E+06    -51.7297E+06    -46.5129E+06     8.13631E+06     46.7191E+06    -17.4103E+06
            1800     127.593E-03     11.8942E-03     127.037E-03     329.567E-03    -163.656E-03    -165.911E-03    -163.801E-03     327.458E-03    -163.658E-03     64.2898E-03     349.229E-03     100.798E+06     74.2453E+06     40.0226E+06    -39.1399E+06    -35.8175E+06     58.2631E+06     52.6824E+06    -16.1662E+06
            1801     127.760E-03     12.7433E-03     127.122E-03     330.494E-03    -163.711E-03    -166.783E-03    -163.931E-03     327.642E-03    -163.711E-03     74.7571E-03     356.028E-03     115.407E+06     101.895E+06     61.2499E+06    -28.2932E+06    -26.9026E+06     100.504E+06     61.2499E+06    -13.1626E+06
            1802     127.949E-03     13.6008E-03     127.224E-03     331.647E-03    -163.915E-03    -167.732E-03    -163.852E-03     327.767E-03    -163.915E-03     86.9808E-03     365.629E-03     125.862E+06     117.464E+06     87.9577E+06    -20.0913E+06    -19.4590E+06     116.832E+06     87.9577E+06    -8.18428E+06
            1803     128.169E-03     14.4516E-03     127.352E-03     329.633E-03    -162.891E-03    -166.743E-03    -161.684E-03     325.951E-03    -164.267E-03     83.8539E-03     361.312E-03     170.109E+06     173.457E+06     138.407E+06    -11.2894E+06    -11.1814E+06     148.723E+06     163.033E+06    -2.92868E+06
            1804     127.959E-03     849.058E-06     127.956E-03     326.904E-03    -162.472E-03    -164.431E-03    -163.421E-03     326.886E-03    -163.465E-03     2.29546E-03     327.506E-03     109.823E+06    -156.928E+06    -160.836E+06    -268.631E+06    -160.116E+06    -268.526E+06    -157.753E+06    -2.39630E+06
            1805     127.971E-03     1.70054E-03     127.960E-03     327.043E-03    -163.101E-03    -163.943E-03    -163.544E-03     326.997E-03    -163.452E-03     7.96996E-03     327.702E-03     105.391E+06    -146.254E+06    -155.777E+06    -255.951E+06    -155.962E+06    -255.766E+06    -146.254E+06    -3.11435E+06
            1806     127.999E-03     2.54883E-03     127.973E-03     326.759E-03    -162.923E-03    -163.836E-03    -163.148E-03     326.634E-03    -163.486E-03     15.1329E-03     327.890E-03     101.158E+06    -128.519E+06    -149.865E+06    -238.449E+06    -150.206E+06    -238.108E+06    -128.519E+06    -4.47266E+06
            1807     128.037E-03     3.39666E-03     127.992E-03     326.308E-03    -162.708E-03    -163.601E-03    -162.703E-03     326.138E-03    -163.435E-03     18.1828E-03     328.059E-03     97.4421E+06    -106.225E+06    -140.550E+06    -215.960E+06    -141.181E+06    -215.329E+06    -106.225E+06    -6.47222E+06
            1808     128.072E-03     4.24777E-03     128.002E-03     327.053E-03    -163.085E-03    -163.969E-03    -163.349E-03     326.791E-03    -163.442E-03     22.2531E-03     329.938E-03     94.1851E+06    -82.9628E+06    -129.157E+06    -191.118E+06    -130.483E+06    -189.792E+06    -82.9628E+06    -8.49166E+06
            1809     128.126E-03     5.09565E-03     128.024E-03     328.027E-03    -163.417E-03    -164.609E-03    -164.025E-03     327.598E-03    -163.573E-03     28.8177E-03     332.464E-03     93.0219E+06    -60.0303E+06    -117.096E+06    -167.186E+06    -119.768E+06    -164.514E+06    -60.0303E+06    -10.7274E+06
            1810     128.192E-03     5.94421E-03     128.054E-03     328.423E-03    -163.733E-03    -164.690E-03    -164.141E-03     327.874E-03    -163.733E-03     32.6339E-03     334.058E-03     93.8030E+06    -37.8768E+06    -103.562E+06    -145.222E+06    -108.806E+06    -139.978E+06    -37.8768E+06    -13.1549E+06
            1811     128.267E-03     6.79239E-03     128.087E-03     328.130E-03    -163.632E-03    -164.498E-03    -163.673E-03     327.508E-03    -163.834E-03     34.6893E-03     335.180E-03     94.2788E+06    -16.7438E+06    -88.0244E+06    -123.575E+06    -96.9073E+06    -114.692E+06    -16.7438E+06    -14.8380E+06
            1812     128.349E-03     7.64194E-03     128.121E-03     327.272E-03    -162.987E-03    -164.286E-03    -162.714E-03     326.550E-03    -163.835E-03     37.4380E-03     335.699E-03     94.8569E+06     2.81384E+06    -70.6056E+06    -104.233E+06    -85.4845E+06    -89.3543E+06     2.81384E+06    -16.1564E+06
            1813     128.443E-03     8.49502E-03     128.161E-03     326.449E-03    -162.494E-03    -163.955E-03    -161.662E-03     325.383E-03    -163.721E-03     45.1612E-03     337.363E-03     95.3249E+06     19.4637E+06    -51.2121E+06    -88.7933E+06    -74.8366E+06    -65.1687E+06     19.4637E+06    -17.7702E+06
            1814     128.562E-03     9.34401E-03     128.222E-03     325.539E-03    -162.021E-03    -163.519E-03    -160.765E-03     324.283E-03    -163.519E-03     49.3718E-03     337.836E-03     94.9972E+06     32.9113E+06    -30.6022E+06    -75.9468E+06    -64.8293E+06    -41.7197E+06     32.9113E+06    -19.2732E+06
            1815     128.681E-03     10.2008E-03     128.276E-03     325.903E-03    -162.031E-03    -163.872E-03    -161.089E-03     324.399E-03    -163.309E-03     53.7028E-03     340.073E-03     94.0352E+06     43.9134E+06    -5.51915E+06    -63.9065E+06    -54.8949E+06    -14.5307E+06     43.9134E+06    -20.7743E+06
            1816     128.824E-03     11.0527E-03     128.349E-03     327.479E-03    -162.827E-03    -164.652E-03    -162.468E-03     325.656E-03    -163.188E-03     59.6247E-03     344.360E-03     91.5625E+06     50.6790E+06     17.9846E+06    -52.4874E+06    -45.0321E+06     10.5293E+06     50.6790E+06    -21.5784E+06
            1817     128.979E-03     11.9034E-03     128.429E-03     328.881E-03    -163.156E-03    -165.725E-03    -163.715E-03     326.872E-03    -163.156E-03     62.7137E-03     348.171E-03     102.465E+06     73.3620E+06     40.6124E+06    -41.3835E+06    -36.4606E+06     55.7387E+06     53.3128E+06    -20.2918E+06
            1818     129.140E-03     12.7523E-03     128.509E-03     331.702E-03    -163.293E-03    -168.409E-03    -165.682E-03     328.975E-03    -163.293E-03     73.2321E-03     356.102E-03     112.646E+06     95.0953E+06     57.5963E+06    -31.4789E+06    -29.4616E+06      93.078E+06     57.5963E+06    -15.3566E+06
            1819     129.330E-03     13.5941E-03     128.613E-03     334.282E-03    -163.651E-03    -170.631E-03    -166.775E-03     330.425E-03    -163.651E-03     87.2089E-03     368.319E-03     120.325E+06     108.869E+06     78.4743E+06    -23.5358E+06    -22.7183E+06     108.051E+06     78.4743E+06    -9.35554E+06
            1820     129.550E-03     14.4399E-03     128.742E-03     330.086E-03    -162.398E-03    -167.688E-03    -162.510E-03     326.667E-03    -164.157E-03     80.7295E-03     362.002E-03     165.819E+06     169.283E+06     129.078E+06    -12.8281E+06    -12.5732E+06     141.767E+06     156.338E+06    -4.43046E+06
            1821     129.344E-03     852.070E-06     129.341E-03     323.294E-03    -160.710E-03    -162.583E-03    -161.683E-03     323.282E-03    -161.599E-03     896.718E-06     324.079E-03     106.826E+06    -155.559E+06    -159.743E+06    -264.376E+06    -159.045E+06    -264.306E+06    -156.328E+06    -626.046E+03
            1822     129.356E-03     1.69873E-03     129.345E-03     323.072E-03    -161.182E-03    -161.890E-03    -161.435E-03     323.001E-03    -161.566E-03     9.52016E-03     323.742E-03     100.510E+06    -145.090E+06    -154.974E+06    -250.042E+06    -155.205E+06    -249.812E+06    -145.090E+06    -3.03251E+06
            1823     129.382E-03     2.55043E-03     129.356E-03     321.364E-03    -160.007E-03    -161.357E-03    -159.844E-03     321.201E-03    -161.357E-03     16.9559E-03     322.392E-03     97.2689E+06    -125.269E+06    -146.263E+06    -231.140E+06    -146.686E+06    -230.717E+06    -125.269E+06    -5.01394E+06
            1824     129.415E-03     3.40669E-03     129.370E-03     321.026E-03    -159.954E-03    -161.072E-03    -159.738E-03     320.780E-03    -161.041E-03     21.5203E-03     322.660E-03     94.9994E+06    -102.376E+06    -136.014E+06    -209.418E+06    -136.974E+06    -208.457E+06    -102.376E+06    -7.73176E+06
            1825     129.457E-03     4.25742E-03     129.387E-03     323.282E-03    -160.942E-03    -162.340E-03    -161.829E-03     322.893E-03    -161.064E-03     27.1165E-03     325.970E-03     94.0089E+06    -77.7414E+06    -124.375E+06    -185.690E+06    -126.213E+06    -183.852E+06    -77.7414E+06    -10.0607E+06
            1826     129.511E-03     5.10707E-03     129.410E-03     325.516E-03    -161.415E-03    -164.101E-03    -163.512E-03     324.927E-03    -161.415E-03     33.7067E-03     329.733E-03     93.4202E+06    -53.3281E+06    -111.565E+06    -160.909E+06    -114.811E+06    -157.664E+06    -53.3281E+06    -11.7324E+06
            1827     129.578E-03     5.95628E-03     129.441E-03     326.043E-03    -161.801E-03    -164.242E-03    -163.511E-03     325.312E-03    -161.801E-03     37.7813E-03     331.630E-03     94.6169E+06    -30.4054E+06    -97.4836E+06    -138.525E+06    -103.550E+06    -132.458E+06    -30.4054E+06    -13.9681E+06
            1828     129.652E-03     6.80653E-03     129.473E-03     326.164E-03    -162.074E-03    -164.090E-03    -163.269E-03     325.343E-03    -162.074E-03     40.0611E-03     333.065E-03     96.2210E+06    -10.3043E+06    -82.1152E+06    -119.564E+06    -92.8995E+06    -108.779E+06    -10.3043E+06    -16.4670E+06
            1829     129.733E-03     7.65644E-03     129.507E-03     327.194E-03    -162.303E-03    -164.891E-03    -163.940E-03     326.243E-03    -162.303E-03     43.1212E-03     335.935E-03     96.5838E+06     8.10074E+06    -64.6252E+06    -101.435E+06    -81.9470E+06    -84.1131E+06     8.10074E+06    -17.8535E+06
            1830     129.827E-03     8.50277E-03     129.548E-03     327.421E-03    -162.427E-03    -164.994E-03    -163.716E-03     326.218E-03    -162.502E-03     48.4122E-03     338.536E-03     96.8723E+06     25.0583E+06    -45.6734E+06    -85.2085E+06    -71.0511E+06    -59.8308E+06     25.0583E+06    -18.6801E+06
            1831     129.940E-03     9.35696E-03     129.602E-03     326.611E-03    -162.196E-03    -164.414E-03    -162.673E-03     325.263E-03    -162.590E-03     51.3495E-03     338.924E-03     96.7011E+06     38.8701E+06    -24.0679E+06    -72.1351E+06    -60.6836E+06    -35.5195E+06     38.8701E+06    -20.2255E+06
            1832     130.060E-03     10.2048E-03     129.659E-03     328.143E-03    -162.329E-03    -165.814E-03    -163.888E-03     326.536E-03    -162.648E-03     55.9135E-03     342.674E-03     95.8720E+06     49.2977E+06     656.653E+03    -60.6926E+06    -51.2652E+06    -8.77077E+06     49.2977E+06    -21.9007E+06
            1833     130.206E-03     11.0527E-03     129.736E-03     329.185E-03    -162.766E-03    -166.419E-03    -164.646E-03     327.412E-03    -162.766E-03     59.0476E-03     345.846E-03     94.0091E+06     54.3468E+06     21.8647E+06    -51.3239E+06    -43.0558E+06     13.5966E+06     54.3468E+06    -23.0821E+06
            1834     130.355E-03     11.9031E-03     129.811E-03     328.296E-03    -162.842E-03    -165.454E-03    -163.539E-03     326.381E-03    -162.842E-03     61.1622E-03     346.656E-03     100.553E+06     70.3759E+06     42.2618E+06    -41.2063E+06    -35.5305E+06     52.3074E+06     54.6546E+06    -21.6612E+06
            1835     130.524E-03     12.7548E-03     129.899E-03     331.161E-03    -162.972E-03    -168.189E-03    -165.241E-03     328.213E-03    -162.972E-03     75.8434E-03     355.004E-03     106.702E+06     88.1946E+06     55.8305E+06    -30.9047E+06    -28.2182E+06     85.5081E+06     55.8305E+06    -17.1752E+06
            1836     130.722E-03     13.6053E-03     130.012E-03     333.281E-03    -163.288E-03    -169.993E-03    -165.933E-03     329.221E-03    -163.288E-03     89.5546E-03     367.729E-03     111.360E+06     101.772E+06     71.1997E+06    -21.5993E+06    -20.2093E+06     100.382E+06     71.1997E+06    -12.1382E+06
            1837     130.927E-03     14.4587E-03     130.126E-03     332.066E-03    -163.471E-03    -168.595E-03    -164.682E-03     328.536E-03    -163.854E-03     82.7081E-03     364.091E-03     155.062E+06     159.310E+06     119.399E+06    -11.7867E+06    -11.3869E+06     132.929E+06     145.380E+06    -6.30470E+06
            1838     130.725E-03     851.529E-06     130.722E-03     314.770E-03    -156.490E-03    -158.279E-03    -156.736E-03     314.724E-03    -157.988E-03     7.81127E-03     315.434E-03     108.891E+06    -151.667E+06    -155.089E+06    -262.179E+06    -154.413E+06    -262.086E+06    -152.436E+06    -1.61179E+06
            1839     130.732E-03     1.70821E-03     130.721E-03     315.350E-03    -157.086E-03    -158.264E-03    -157.767E-03     315.200E-03    -157.433E-03     15.7277E-03     315.933E-03     100.246E+06    -139.022E+06    -149.271E+06    -243.841E+06    -149.502E+06    -243.610E+06    -139.022E+06    -3.48004E+06
            1840     130.756E-03     2.56337E-03     130.731E-03     315.778E-03    -156.854E-03    -158.924E-03    -157.882E-03     315.523E-03    -157.641E-03     21.9235E-03     316.728E-03     95.9092E+06    -120.046E+06    -141.392E+06    -224.663E+06    -142.050E+06    -224.005E+06    -120.046E+06    -6.49880E+06
            1841     130.787E-03     3.41543E-03     130.742E-03     316.596E-03    -157.409E-03    -159.186E-03    -158.385E-03     316.234E-03    -157.849E-03     25.9381E-03     318.260E-03     93.3914E+06    -96.8893E+06    -131.439E+06    -202.329E+06    -132.722E+06    -201.046E+06    -96.8893E+06    -8.91042E+06
            1842     130.835E-03     4.27047E-03     130.765E-03     318.379E-03    -158.172E-03    -160.207E-03    -159.652E-03     317.824E-03    -158.172E-03     32.3241E-03     321.223E-03     93.0645E+06    -71.2501E+06    -119.622E+06    -178.325E+06    -122.037E+06    -175.910E+06    -71.2501E+06    -11.1428E+06
            1843     130.892E-03     5.12181E-03     130.792E-03     320.915E-03    -158.651E-03    -162.263E-03    -161.474E-03     320.125E-03    -158.651E-03     38.7968E-03     324.977E-03     94.2252E+06    -46.3709E+06    -106.346E+06    -154.793E+06    -110.493E+06    -150.646E+06    -46.3709E+06    -13.1135E+06
            1844     130.960E-03     5.97158E-03     130.824E-03     322.532E-03    -159.198E-03    -163.334E-03    -162.410E-03     321.609E-03    -159.198E-03     42.2114E-03     327.780E-03     95.2009E+06    -23.8651E+06    -92.3505E+06    -132.488E+06    -99.0399E+06    -125.798E+06    -23.8651E+06    -14.5655E+06
            1845     131.031E-03     6.82185E-03     130.854E-03     323.565E-03    -159.694E-03    -163.871E-03    -162.811E-03     322.506E-03    -159.694E-03     45.1228E-03     330.260E-03     96.5946E+06    -3.52589E+06    -76.4843E+06    -112.986E+06    -87.9293E+06    -101.541E+06    -3.52589E+06    -16.4250E+06
            1846     131.118E-03     7.67113E-03     130.893E-03     325.987E-03    -160.182E-03    -165.806E-03    -164.488E-03     324.670E-03    -160.182E-03     50.5233E-03     334.983E-03     97.7738E+06     14.4085E+06    -58.7949E+06    -96.4939E+06    -77.1156E+06    -78.1732E+06     14.4085E+06    -18.5950E+06
            1847     131.213E-03     8.52028E-03     130.936E-03     328.325E-03    -160.722E-03    -167.603E-03    -166.098E-03     326.820E-03    -160.722E-03     54.3510E-03     339.694E-03     97.9671E+06     30.2524E+06    -39.4237E+06    -81.6355E+06    -66.5420E+06    -54.5172E+06     30.2524E+06    -19.8872E+06
            1848     131.320E-03     9.36428E-03     130.986E-03     329.275E-03    -161.238E-03    -168.038E-03    -166.358E-03     327.596E-03    -161.238E-03     57.3975E-03     341.978E-03     97.4510E+06     44.1362E+06    -18.3682E+06    -67.9493E+06    -56.4101E+06    -29.9074E+06     44.1362E+06    -20.7715E+06
            1849     131.446E-03     10.2147E-03     131.048E-03     330.912E-03    -161.685E-03    -169.227E-03    -167.114E-03     328.799E-03    -161.685E-03     64.4916E-03     346.598E-03     97.0475E+06     54.6778E+06     5.80363E+06    -56.6021E+06    -47.4365E+06    -3.36197E+06     54.6778E+06    -21.8011E+06
            1850     131.593E-03     11.0613E-03     131.127E-03     331.073E-03    -162.073E-03    -169.001E-03    -166.851E-03     328.923E-03    -162.073E-03     65.2624E-03     348.575E-03     95.1750E+06     59.6587E+06     26.8292E+06    -47.3853E+06    -39.2058E+06     18.6496E+06     59.6587E+06    -23.2281E+06
            1851     131.735E-03     11.9084E-03     131.195E-03     330.242E-03    -162.339E-03    -167.903E-03    -165.575E-03     327.914E-03    -162.339E-03     67.5280E-03     349.445E-03     97.5493E+06     70.7917E+06     45.4669E+06    -36.9057E+06    -30.1389E+06     51.0329E+06     58.4588E+06    -23.4142E+06
            1852     131.902E-03     12.7587E-03     131.284E-03     331.345E-03    -162.565E-03    -168.780E-03    -165.402E-03     327.967E-03    -162.565E-03     81.5340E-03     357.000E-03     99.2778E+06     84.1337E+06     57.5032E+06    -25.7127E+06    -21.5485E+06     79.9696E+06     57.5032E+06    -20.5544E+06
            1853     132.105E-03     13.6076E-03     131.402E-03     332.495E-03    -162.898E-03    -169.597E-03    -165.770E-03     328.668E-03    -162.898E-03     87.2394E-03     367.064E-03      98.956E+06     91.9143E+06     66.7249E+06    -17.1262E+06    -15.0005E+06     89.7886E+06     66.7249E+06    -14.2419E+06
            1854     132.298E-03     14.4577E-03     131.506E-03     334.775E-03    -163.587E-03    -171.188E-03    -167.918E-03     331.505E-03    -163.587E-03     80.8068E-03     365.695E-03     141.335E+06     147.362E+06     111.315E+06    -8.43889E+06    -7.92199E+06     121.690E+06     136.470E+06    -5.63042E+06
            1855     132.084E-03     864.064E-06     132.081E-03     301.876E-03    -149.681E-03    -152.196E-03    -150.678E-03     301.811E-03    -151.133E-03     9.22808E-03     302.495E-03     107.775E+06    -146.058E+06    -149.550E+06    -255.477E+06    -149.687E+06    -255.339E+06    -146.058E+06    -3.57718E+06
            1856     132.096E-03     1.72030E-03     132.085E-03     305.725E-03    -151.502E-03    -154.224E-03    -154.046E-03     305.547E-03    -151.502E-03     17.7087E-03     306.223E-03     100.254E+06    -133.651E+06    -143.956E+06    -238.506E+06    -144.314E+06    -238.147E+06    -133.651E+06    -5.11716E+06
            1857     132.122E-03     2.57519E-03     132.097E-03     308.674E-03    -152.701E-03    -155.973E-03    -155.632E-03     308.333E-03    -152.701E-03     24.8080E-03     309.462E-03     95.1794E+06    -113.934E+06    -136.829E+06    -218.170E+06    -137.608E+06    -217.391E+06    -113.934E+06    -7.13298E+06
            1858     132.157E-03     3.43049E-03     132.113E-03     311.070E-03    -153.678E-03    -157.392E-03    -156.818E-03     310.496E-03    -153.678E-03     32.2271E-03     312.711E-03     92.6371E+06    -89.8845E+06    -127.095E+06    -195.071E+06    -128.787E+06    -193.378E+06    -89.8845E+06    -9.81295E+06
            1859     132.202E-03     4.28338E-03     132.133E-03     313.712E-03    -154.542E-03    -159.170E-03    -158.328E-03     312.870E-03    -154.542E-03     39.4500E-03     316.661E-03     91.6309E+06    -64.8227E+06    -115.044E+06    -170.328E+06    -118.092E+06    -167.280E+06    -64.8227E+06    -12.1560E+06
            1860     132.266E-03     5.13867E-03     132.166E-03     316.147E-03    -155.369E-03    -160.778E-03    -159.749E-03     315.118E-03    -155.369E-03     44.1075E-03     320.193E-03      94.034E+06    -40.2537E+06    -101.474E+06    -148.409E+06    -106.623E+06    -143.260E+06    -40.2537E+06    -14.2568E+06
            1861     132.336E-03     5.99184E-03     132.200E-03     318.401E-03    -156.162E-03    -162.238E-03    -161.149E-03     317.312E-03    -156.162E-03     45.6968E-03     323.395E-03     96.2215E+06    -17.4876E+06    -86.1301E+06    -127.394E+06    -94.2833E+06    -119.241E+06    -17.4876E+06    -16.0571E+06
            1862     132.410E-03     6.84258E-03     132.233E-03     320.810E-03    -156.937E-03    -163.873E-03    -162.648E-03     319.586E-03    -156.937E-03     48.5839E-03     327.177E-03     97.0710E+06     3.08964E+06    -69.9628E+06    -106.984E+06    -82.2220E+06    -94.7253E+06     3.08964E+06    -17.1122E+06
            1863     132.496E-03     7.69369E-03     132.272E-03     323.759E-03    -157.713E-03    -166.046E-03    -164.510E-03     322.222E-03    -157.713E-03     54.6841E-03     332.179E-03     98.0585E+06     20.9336E+06    -52.6538E+06    -90.2507E+06    -71.5183E+06    -71.3862E+06     20.9336E+06    -18.5097E+06
            1864     132.601E-03     8.54020E-03     132.325E-03     327.252E-03    -158.529E-03    -168.723E-03    -166.971E-03     325.500E-03    -158.529E-03     58.8506E-03     337.844E-03     98.6554E+06     35.9883E+06    -33.7779E+06    -76.7082E+06    -61.7381E+06    -48.7481E+06     35.9883E+06    -20.2550E+06
            1865     132.707E-03     9.38757E-03     132.375E-03     330.462E-03    -159.390E-03    -171.072E-03    -169.074E-03     328.464E-03    -159.390E-03     63.0978E-03     343.194E-03     98.5182E+06     49.2918E+06    -13.3021E+06    -64.0738E+06    -52.2280E+06    -25.1479E+06     49.2918E+06    -21.2429E+06
            1866     132.833E-03     10.2294E-03     132.438E-03     331.971E-03    -160.181E-03    -171.790E-03    -169.231E-03     329.412E-03    -160.181E-03     71.4047E-03     348.217E-03     98.2061E+06     60.1344E+06     10.9605E+06    -52.4590E+06    -43.2000E+06     1.70161E+06     60.1344E+06    -22.1757E+06
            1867     132.981E-03     11.0747E-03     132.519E-03     331.962E-03    -160.820E-03    -171.142E-03    -168.565E-03     329.385E-03    -160.820E-03     71.5920E-03     349.480E-03     97.0104E+06     65.9311E+06     33.7399E+06    -42.8153E+06    -34.5038E+06     25.4285E+06     65.9311E+06    -23.8014E+06
            1868     133.117E-03     11.9229E-03     132.582E-03     333.248E-03    -161.348E-03    -171.900E-03    -169.126E-03     330.474E-03    -161.348E-03     74.2758E-03     352.998E-03     100.049E+06     74.9431E+06     50.8242E+06    -34.9521E+06    -27.5123E+06     55.3326E+06     62.9950E+06    -25.5700E+06
            1869     133.292E-03     12.7669E-03     132.679E-03     334.513E-03    -161.868E-03    -172.645E-03    -169.008E-03     330.876E-03    -161.868E-03     85.4673E-03     360.513E-03     97.4988E+06     79.6408E+06     57.2083E+06    -27.0623E+06    -21.3859E+06     73.9644E+06     57.2083E+06    -23.7175E+06
            1870     133.479E-03     13.6174E-03     132.783E-03     336.005E-03    -162.459E-03    -173.547E-03    -169.309E-03     331.768E-03    -162.459E-03     92.4529E-03     370.212E-03     88.6060E+06     76.9083E+06     60.4684E+06    -18.5805E+06    -15.7402E+06     74.0680E+06     60.4684E+06    -14.7720E+06
            1871     133.697E-03     14.4604E-03     132.913E-03     338.991E-03    -163.386E-03    -175.605E-03    -171.747E-03     335.133E-03    -163.386E-03     88.3969E-03     370.429E-03     133.167E+06     134.809E+06     104.176E+06    -10.7269E+06    -10.2607E+06     109.666E+06     128.853E+06    -4.94919E+06
            1872     133.423E-03     864.317E-06     133.420E-03     292.186E-03    -144.730E-03    -147.456E-03    -146.535E-03     292.108E-03    -145.573E-03     9.76132E-03     292.804E-03     102.767E+06    -141.605E+06    -146.369E+06    -246.632E+06    -145.870E+06    -246.507E+06    -142.230E+06    -3.10626E+06
            1873     133.449E-03     1.72854E-03     133.438E-03     296.172E-03    -146.630E-03    -149.541E-03    -149.354E-03     295.984E-03    -146.630E-03     17.9963E-03     296.659E-03     97.4789E+06    -127.682E+06    -139.866E+06    -230.501E+06    -140.400E+06    -229.967E+06    -127.682E+06    -6.51964E+06
            1874     133.475E-03     2.58910E-03     133.450E-03     299.421E-03    -147.909E-03    -151.513E-03    -151.139E-03     299.048E-03    -147.909E-03     25.5692E-03     300.179E-03     94.3498E+06    -107.296E+06    -131.442E+06    -211.105E+06    -132.641E+06    -209.906E+06    -107.296E+06    -9.12321E+06
            1875     133.514E-03     3.44919E-03     133.470E-03     303.673E-03    -149.123E-03    -154.550E-03    -153.873E-03     302.996E-03    -149.123E-03     34.9114E-03     305.147E-03     92.1948E+06    -82.7927E+06    -120.922E+06    -187.601E+06    -122.997E+06    -185.526E+06    -82.7927E+06    -10.8617E+06
            1876     133.568E-03     4.30602E-03     133.499E-03     308.339E-03    -150.440E-03    -157.899E-03    -156.916E-03     307.356E-03    -150.440E-03     42.6793E-03     310.858E-03     91.2231E+06    -57.5559E+06    -108.458E+06    -162.670E+06    -112.259E+06    -158.869E+06    -57.5559E+06    -13.2508E+06
            1877     133.632E-03     5.15733E-03     133.532E-03     311.466E-03    -151.720E-03    -159.745E-03    -158.525E-03     310.245E-03    -151.720E-03     47.7854E-03     315.167E-03     93.8494E+06    -33.2989E+06    -94.3987E+06    -141.237E+06    -100.732E+06    -134.903E+06    -33.2989E+06    -15.6561E+06
            1878     133.705E-03     6.00988E-03     133.570E-03     314.105E-03    -152.849E-03    -161.255E-03    -159.904E-03     312.753E-03    -152.849E-03     50.4096E-03     318.773E-03     96.8468E+06    -11.0988E+06    -79.4349E+06    -121.854E+06    -89.1623E+06    -112.127E+06    -11.0988E+06    -17.5042E+06
            1879     133.783E-03     6.86197E-03     133.607E-03     318.387E-03    -153.954E-03    -164.433E-03    -162.884E-03     316.838E-03    -153.954E-03     54.1796E-03     324.306E-03     98.2266E+06     8.76452E+06    -63.5425E+06    -103.009E+06    -77.4971E+06    -89.0539E+06     8.76452E+06    -18.5903E+06
            1880     133.875E-03     7.70946E-03     133.653E-03     322.491E-03    -155.116E-03    -167.376E-03    -165.610E-03     320.726E-03    -155.116E-03     58.4722E-03     329.979E-03      98.687E+06     26.6540E+06    -46.6673E+06    -85.4753E+06    -66.1473E+06    -65.9953E+06     26.6540E+06    -19.1547E+06
            1881     133.979E-03     8.55982E-03     133.705E-03     325.424E-03    -156.250E-03    -169.174E-03    -167.237E-03     323.487E-03    -156.250E-03     61.6641E-03     334.702E-03     99.0331E+06     42.4614E+06    -28.1170E+06    -70.5618E+06    -56.0141E+06    -42.6648E+06     42.4614E+06    -19.8809E+06
            1882     134.096E-03     9.40430E-03     133.766E-03     329.126E-03    -157.339E-03    -171.787E-03    -169.577E-03     326.916E-03    -157.339E-03     66.2678E-03     341.023E-03     99.0548E+06     55.4441E+06    -7.98633E+06    -58.4450E+06    -46.8984E+06    -19.5329E+06     55.4441E+06    -21.0451E+06
            1883     134.222E-03     10.2497E-03     133.830E-03     331.475E-03    -158.364E-03    -173.111E-03    -170.508E-03     328.873E-03    -158.364E-03     72.1162E-03     346.754E-03     98.3866E+06     65.9096E+06     15.6382E+06    -47.0143E+06    -37.9919E+06     6.61588E+06     65.9096E+06    -21.6632E+06
            1884     134.364E-03     11.0969E-03     133.905E-03     332.543E-03    -159.262E-03    -173.280E-03    -170.575E-03     329.837E-03    -159.262E-03     73.6926E-03     349.299E-03     99.2129E+06     71.7855E+06     40.9110E+06    -38.5571E+06    -30.9168E+06     33.2707E+06     71.7855E+06    -23.3143E+06
            1885     134.511E-03     11.9379E-03     133.980E-03     334.776E-03    -160.060E-03    -174.717E-03    -171.721E-03     331.781E-03    -160.060E-03     77.7027E-03     354.333E-03     101.546E+06     77.7708E+06     57.9938E+06    -32.1444E+06    -25.0954E+06     60.7458E+06     67.9699E+06    -25.3284E+06
            1886     134.678E-03     12.7817E-03     134.070E-03     337.056E-03    -160.853E-03    -176.203E-03    -172.253E-03     333.105E-03    -160.853E-03     89.3876E-03     362.246E-03     91.7937E+06     72.2537E+06     57.3501E+06    -25.9709E+06    -20.5842E+06     66.8671E+06     57.3501E+06    -22.2220E+06
            1887     134.870E-03     13.6216E-03     134.180E-03     339.568E-03    -161.697E-03    -177.871E-03    -172.875E-03     334.572E-03    -161.697E-03     100.858E-03     373.004E-03     78.3747E+06     61.6157E+06     53.9817E+06    -20.2285E+06    -17.1562E+06     58.5434E+06     53.9817E+06    -14.4184E+06
            1888     135.084E-03     14.4694E-03     134.307E-03     346.060E-03    -162.938E-03    -183.123E-03    -178.252E-03     341.190E-03    -162.938E-03     100.484E-03     377.681E-03     123.965E+06     123.839E+06     96.6220E+06    -10.9450E+06    -10.0942E+06     98.3025E+06     121.308E+06    -6.09819E+06
            1889     134.761E-03     869.022E-06     134.759E-03     284.493E-03    -140.410E-03    -144.083E-03    -143.923E-03     284.334E-03    -140.410E-03     16.0276E-03     285.104E-03     97.8122E+06    -135.847E+06    -139.468E+06    -235.393E+06    -138.887E+06    -235.169E+06    -136.652E+06    -4.33323E+06
            1890     134.783E-03     1.73299E-03     134.772E-03     287.712E-03    -142.592E-03    -145.119E-03    -144.857E-03     287.449E-03    -142.592E-03     21.0089E-03     288.160E-03     92.2865E+06    -122.267E+06    -134.471E+06    -219.832E+06    -135.010E+06    -219.294E+06    -122.267E+06    -6.50737E+06
            1891     134.817E-03     2.59986E-03     134.792E-03     291.439E-03    -143.777E-03    -147.662E-03    -147.214E-03     290.991E-03    -143.777E-03     27.6000E-03     292.223E-03     90.6147E+06    -101.397E+06    -126.773E+06    -201.749E+06    -128.171E+06    -200.351E+06    -101.397E+06    -9.73889E+06
            1892     134.862E-03     3.46091E-03     134.817E-03     296.700E-03    -145.118E-03    -151.582E-03    -150.800E-03     295.918E-03    -145.118E-03     36.8947E-03     298.040E-03     90.5892E+06    -77.2467E+06    -114.927E+06    -180.330E+06    -117.958E+06    -177.299E+06    -77.2467E+06    -12.9890E+06
            1893     134.924E-03     4.31894E-03     134.855E-03     301.342E-03    -146.586E-03    -154.756E-03    -153.658E-03     300.244E-03    -146.586E-03     44.4804E-03     303.453E-03     90.6430E+06    -51.7188E+06    -101.214E+06    -156.089E+06    -105.908E+06    -151.395E+06    -51.7188E+06    -14.7600E+06
            1894     134.992E-03     5.17760E-03     134.892E-03     304.962E-03    -147.978E-03    -156.984E-03    -155.601E-03     303.579E-03    -147.978E-03     50.3151E-03     308.141E-03     93.0092E+06    -26.8923E+06    -87.6470E+06    -133.823E+06    -94.5144E+06    -126.956E+06    -26.8923E+06    -16.0079E+06
            1895     135.068E-03     6.03362E-03     134.933E-03     309.245E-03    -149.294E-03    -159.950E-03    -158.271E-03     307.565E-03    -149.294E-03     55.9873E-03     313.401E-03     96.6059E+06    -4.63931E+06    -73.1752E+06    -115.089E+06    -83.5468E+06    -104.717E+06    -4.63931E+06    -17.8011E+06
            1896     135.152E-03     6.88617E-03     134.977E-03     315.562E-03    -150.705E-03    -164.857E-03    -162.801E-03     313.506E-03    -150.705E-03     62.5749E-03     321.169E-03     99.1702E+06     14.9079E+06    -57.3612E+06    -98.0843E+06    -72.2956E+06    -83.1499E+06     14.9079E+06    -19.3433E+06
            1897     135.255E-03     7.73499E-03     135.033E-03     321.302E-03    -152.260E-03    -169.043E-03    -166.832E-03     319.092E-03    -152.260E-03     65.6239E-03     328.362E-03     99.6840E+06     32.0986E+06    -41.3629E+06    -81.2781E+06    -61.4495E+06    -61.1914E+06     32.0986E+06    -19.7547E+06
            1898     135.356E-03     8.57788E-03     135.084E-03     324.841E-03    -153.791E-03    -171.050E-03    -168.698E-03     322.488E-03    -153.791E-03     67.9942E-03     333.862E-03     99.3159E+06     47.6498E+06    -23.5860E+06    -65.6558E+06    -51.1767E+06    -38.0652E+06     47.6498E+06    -19.6600E+06
            1899     135.479E-03     9.42640E-03     135.151E-03     328.046E-03    -155.183E-03    -172.863E-03    -170.252E-03     325.435E-03    -155.183E-03     72.0917E-03     339.375E-03     99.0139E+06     61.0391E+06    -3.52530E+06    -52.7038E+06    -42.2982E+06    -13.9308E+06     61.0391E+06    -19.8058E+06
            1900     135.610E-03     10.2693E-03     135.220E-03     331.564E-03    -156.475E-03    -175.089E-03    -172.356E-03     328.831E-03    -156.475E-03     74.1530E-03     345.635E-03     99.1945E+06     71.1530E+06     20.0246E+06    -42.5958E+06    -34.4426E+06     11.8714E+06     71.1530E+06    -20.8215E+06
            1901     135.750E-03     11.1097E-03     135.294E-03     334.192E-03    -157.698E-03    -176.494E-03    -173.756E-03     331.454E-03    -157.698E-03     74.5187E-03     350.031E-03     99.3601E+06     77.5935E+06     47.2071E+06    -32.7557E+06    -25.9799E+06     40.4314E+06     77.5935E+06    -22.1235E+06
            1902     135.902E-03     11.9554E-03     135.376E-03     335.649E-03    -158.799E-03    -176.850E-03    -174.014E-03     332.812E-03    -158.799E-03     75.9228E-03     353.902E-03     97.8659E+06     79.1059E+06     63.0939E+06    -25.7319E+06    -20.1362E+06     64.1472E+06     72.4568E+06    -22.1747E+06
            1903     136.068E-03     12.7979E-03     135.465E-03     337.770E-03    -159.828E-03    -177.942E-03    -174.328E-03     334.156E-03    -159.828E-03     85.3840E-03     361.694E-03     83.7055E+06     65.9525E+06     56.5723E+06    -22.0151E+06    -17.2170E+06     59.6985E+06     58.0283E+06    -19.3022E+06
            1904     136.264E-03     13.6448E-03     135.579E-03     342.501E-03    -160.933E-03    -181.568E-03    -176.942E-03     337.874E-03    -160.933E-03     97.3070E-03     373.481E-03     67.6997E+06     53.0664E+06     48.1324E+06    -16.9628E+06    -13.8130E+06     47.3757E+06     50.6732E+06    -13.3308E+06
            1905     136.480E-03     14.4820E-03     135.710E-03     352.796E-03    -162.529E-03    -190.267E-03    -185.073E-03     347.602E-03    -162.529E-03     105.372E-03     383.022E-03     113.737E+06     114.279E+06     87.2835E+06    -10.0146E+06    -9.06386E+06     87.4507E+06     113.161E+06    -6.79048E+06
            1906     136.084E-03     872.368E-06     136.081E-03     276.299E-03    -136.685E-03    -139.614E-03    -139.424E-03     276.109E-03    -136.685E-03     17.5800E-03     276.857E-03     91.3238E+06    -130.050E+06    -133.640E+06    -223.086E+06    -133.700E+06    -222.846E+06    -130.230E+06    -3.80380E+06
            1907     136.111E-03     1.74348E-03     136.100E-03     279.833E-03    -138.534E-03    -141.298E-03    -140.954E-03     279.488E-03    -138.534E-03     23.7550E-03     280.225E-03     86.7829E+06    -117.421E+06    -129.072E+06    -209.275E+06    -129.612E+06    -208.735E+06    -117.421E+06    -6.39246E+06
            1908     136.148E-03     2.60876E-03     136.123E-03     284.705E-03    -139.876E-03    -144.829E-03    -144.162E-03     284.038E-03    -139.876E-03     33.2321E-03     285.397E-03     85.4812E+06    -95.6584E+06    -119.845E+06    -190.373E+06    -121.358E+06    -188.859E+06    -95.6584E+06    -9.61976E+06
            1909     136.202E-03     3.47383E-03     136.158E-03     289.790E-03    -141.370E-03    -148.420E-03    -147.351E-03     288.721E-03    -141.370E-03     42.9272E-03     291.043E-03     87.7200E+06    -70.8588E+06    -108.374E+06    -170.826E+06    -111.735E+06    -167.465E+06    -70.8588E+06    -13.4942E+06
            1910     136.268E-03     4.33672E-03     136.199E-03     293.726E-03    -142.813E-03    -150.913E-03    -149.513E-03     292.326E-03    -142.813E-03     49.6941E-03     295.753E-03     90.0541E+06    -46.5910E+06    -96.0522E+06    -150.308E+06    -101.528E+06    -144.832E+06    -46.5910E+06    -15.7670E+06
            1911     136.340E-03     5.19660E-03     136.241E-03     298.180E-03    -144.180E-03    -154.001E-03    -152.280E-03     296.459E-03    -144.180E-03     55.4754E-03     300.937E-03     92.1244E+06    -22.2881E+06    -82.3634E+06    -128.180E+06    -89.7046E+06    -120.839E+06    -22.2881E+06    -16.3853E+06
            1912     136.422E-03     6.05505E-03     136.288E-03     305.081E-03    -145.694E-03    -159.386E-03    -157.331E-03     303.025E-03    -145.694E-03     61.4824E-03     308.731E-03     95.1571E+06     633.812E+03    -68.2190E+06    -107.903E+06    -78.2436E+06    -97.8782E+06     633.812E+03    -16.8739E+06
            1913     136.518E-03     6.90891E-03     136.343E-03     312.237E-03    -147.444E-03    -164.793E-03    -162.440E-03     309.885E-03    -147.444E-03     66.7608E-03     317.313E-03     98.3935E+06     20.2099E+06    -53.6916E+06    -91.3602E+06    -68.4175E+06    -76.6343E+06     20.2099E+06    -18.0543E+06
            1914     136.628E-03     7.75752E-03     136.408E-03     317.569E-03    -149.263E-03    -168.306E-03    -165.825E-03     315.088E-03    -149.263E-03     69.2244E-03     323.904E-03     100.046E+06     36.5594E+06    -38.5083E+06    -76.8642E+06    -59.1339E+06    -56.2386E+06     36.5594E+06    -18.9092E+06
            1915     136.737E-03     8.60583E-03     136.466E-03     323.226E-03    -151.049E-03    -172.177E-03    -169.387E-03     320.436E-03    -151.049E-03     73.9863E-03     331.766E-03     100.010E+06     51.0669E+06    -21.2583E+06    -62.9182E+06    -49.9018E+06    -34.2746E+06     51.0669E+06    -18.8904E+06
            1916     136.861E-03     9.44630E-03     136.535E-03     327.973E-03    -152.779E-03    -175.194E-03    -172.139E-03     324.918E-03    -152.779E-03     78.1009E-03     338.484E-03     99.6355E+06     64.4259E+06    -778.186E+03    -49.9807E+06    -41.1484E+06    -9.61056E+06     64.4259E+06    -18.5370E+06
            1917     136.996E-03     10.2906E-03     136.609E-03     332.619E-03    -154.430E-03    -178.189E-03    -174.908E-03     329.338E-03    -154.430E-03     81.4524E-03     345.943E-03     100.568E+06     75.0840E+06     24.7446E+06    -40.0422E+06    -33.4306E+06     18.1330E+06     75.0840E+06    -19.1555E+06
            1918     137.145E-03     11.1312E-03     136.693E-03     337.619E-03    -156.056E-03    -181.563E-03    -178.442E-03     334.498E-03    -156.056E-03     79.9896E-03     352.768E-03     102.670E+06     80.3680E+06     52.0716E+06    -32.8211E+06    -27.1352E+06     46.3857E+06     80.3680E+06    -20.8369E+06
            1919     137.292E-03     11.9653E-03     136.770E-03     340.081E-03    -157.626E-03    -182.455E-03    -179.654E-03     337.280E-03    -157.626E-03     76.2708E-03     356.684E-03     96.8872E+06     76.4024E+06     64.7989E+06    -25.5806E+06    -21.1421E+06     63.3648E+06     73.3980E+06    -19.7191E+06
            1920     137.461E-03     12.8046E-03     136.863E-03     341.927E-03    -159.095E-03    -182.832E-03    -179.661E-03     338.756E-03    -159.095E-03     81.2441E-03     363.603E-03     78.2397E+06     60.2961E+06     55.1981E+06    -20.3002E+06    -16.5484E+06     54.4508E+06     57.2916E+06    -16.1326E+06
            1921     137.654E-03     13.6396E-03     136.976E-03     348.743E-03    -160.630E-03    -188.114E-03    -183.873E-03     344.502E-03    -160.630E-03     94.4243E-03     377.506E-03     62.7845E+06     47.8267E+06     43.5345E+06    -16.9736E+06    -13.5027E+06     40.0636E+06     47.8267E+06    -12.8743E+06
            1922     137.890E-03     14.4740E-03     137.129E-03     355.579E-03    -162.532E-03    -193.047E-03    -187.925E-03     350.457E-03    -162.532E-03     105.260E-03     385.284E-03     104.250E+06     105.383E+06     77.7656E+06    -9.28532E+06    -7.70819E+06     76.1885E+06     105.383E+06    -7.31946E+06
            1923     137.394E-03     874.099E-06     137.391E-03     270.828E-03    -134.980E-03    -135.848E-03    -135.176E-03     270.674E-03    -135.497E-03     15.4108E-03     271.444E-03     86.5819E+06    -123.710E+06    -127.617E+06    -212.136E+06    -127.511E+06    -212.000E+06    -123.951E+06    -2.39789E+06
            1924     137.427E-03     1.74751E-03     137.416E-03     272.269E-03    -135.119E-03    -137.150E-03    -136.399E-03     271.892E-03    -135.493E-03     24.2801E-03     272.677E-03     82.6062E+06    -110.707E+06    -121.445E+06    -198.028E+06    -122.145E+06    -197.329E+06    -110.707E+06    -6.64035E+06
            1925     137.471E-03     2.62058E-03     137.446E-03     277.106E-03    -136.325E-03    -140.781E-03    -139.963E-03     276.288E-03    -136.325E-03     36.3710E-03     277.732E-03     80.9635E+06    -90.9936E+06    -113.498E+06    -180.434E+06    -115.072E+06    -178.859E+06    -90.9936E+06    -9.64597E+06
            1926     137.533E-03     3.48752E-03     137.489E-03     281.832E-03    -137.611E-03    -144.221E-03    -142.966E-03     280.577E-03    -137.611E-03     46.0782E-03     282.901E-03     83.0623E+06    -66.2131E+06    -104.129E+06    -161.141E+06    -106.981E+06    -158.289E+06    -66.2131E+06    -11.8519E+06
            1927     137.601E-03     4.35328E-03     137.532E-03     286.382E-03    -138.970E-03    -147.412E-03    -145.778E-03     284.748E-03    -138.970E-03     52.9986E-03     288.144E-03     87.3027E+06    -41.3158E+06    -92.5530E+06    -141.858E+06    -97.6455E+06    -136.766E+06    -41.3158E+06    -14.4614E+06
            1928     137.679E-03     5.21892E-03     137.581E-03     292.853E-03    -140.466E-03    -152.386E-03    -150.364E-03     290.830E-03    -140.466E-03     59.8298E-03     295.352E-03     90.8490E+06    -18.7753E+06    -79.9851E+06    -122.953E+06    -87.6541E+06    -115.284E+06    -18.7753E+06    -16.0286E+06
            1929     137.772E-03     6.07743E-03     137.638E-03     300.961E-03    -142.248E-03    -158.713E-03    -156.149E-03     298.397E-03    -142.248E-03     68.1876E-03     304.635E-03     93.5103E+06     2.47837E+06    -67.4374E+06    -103.543E+06    -77.6281E+06    -93.3522E+06     2.47837E+06    -15.8393E+06
            1930     137.882E-03     6.92800E-03     137.708E-03     308.255E-03    -144.231E-03    -164.024E-03    -161.073E-03     305.304E-03    -144.231E-03     74.1793E-03     313.111E-03     96.0712E+06     22.0802E+06    -53.8501E+06    -85.8358E+06    -68.5438E+06    -71.1421E+06     22.0802E+06    -15.5253E+06
            1931     137.990E-03     7.77999E-03     137.771E-03     313.805E-03    -146.233E-03    -167.572E-03    -164.567E-03     310.800E-03    -146.233E-03     75.6315E-03     319.710E-03     99.1246E+06     38.9186E+06    -38.7501E+06    -72.5467E+06    -59.9962E+06    -51.3005E+06     38.9186E+06    -15.9502E+06
            1932     138.111E-03     8.62881E-03     137.841E-03     320.413E-03    -148.199E-03    -172.214E-03    -168.851E-03     317.050E-03    -148.199E-03     80.9323E-03     328.501E-03     100.470E+06     52.9291E+06    -20.8389E+06    -61.1357E+06    -52.0928E+06    -29.8818E+06     52.9291E+06    -16.2823E+06
            1933     138.247E-03     9.47452E-03     137.922E-03     327.171E-03    -150.187E-03    -176.984E-03    -173.500E-03     323.688E-03    -150.187E-03     83.4374E-03     336.720E-03     100.905E+06     65.3893E+06     1.61451E+06    -50.6010E+06    -44.0918E+06    -4.89478E+06     65.3893E+06    -16.8666E+06
            1934     138.378E-03     10.3142E-03     137.994E-03     333.848E-03    -152.198E-03    -181.650E-03    -177.811E-03     330.008E-03    -152.198E-03     88.4094E-03     346.485E-03     102.043E+06     75.9047E+06     26.8580E+06    -40.9976E+06    -36.2001E+06     22.0605E+06     75.9047E+06    -16.9303E+06
            1935     138.547E-03     11.1505E-03     138.097E-03     340.101E-03    -154.216E-03    -185.885E-03    -182.165E-03     336.380E-03    -154.216E-03     87.6627E-03     354.816E-03     105.561E+06     82.3283E+06     55.9298E+06    -33.0751E+06    -29.4922E+06     52.3469E+06     82.3283E+06    -17.0353E+06
            1936     138.694E-03     11.9840E-03     138.175E-03     345.150E-03    -156.225E-03    -188.925E-03    -185.534E-03     341.759E-03    -156.225E-03     84.5942E-03     361.565E-03     97.5259E+06     73.2327E+06     65.4366E+06    -27.8960E+06    -24.1125E+06     61.6530E+06     73.2327E+06    -17.9361E+06
            1937     138.865E-03     12.8127E-03     138.272E-03     350.549E-03    -158.231E-03    -192.318E-03    -188.425E-03     346.656E-03    -158.231E-03     91.4446E-03     371.663E-03     76.1000E+06     55.5548E+06     53.2505E+06    -21.6615E+06    -18.0244E+06     49.6134E+06     55.5548E+06    -15.8237E+06
            1938     139.056E-03     13.6466E-03     138.385E-03     358.786E-03    -160.329E-03    -198.457E-03    -193.002E-03     353.331E-03    -160.329E-03     108.799E-03     388.877E-03     59.4798E+06     46.2935E+06     39.8533E+06    -15.6800E+06    -12.5563E+06     36.7297E+06     46.2935E+06    -12.2577E+06
            1939     139.317E-03     14.4692E-03     138.564E-03     358.416E-03    -162.555E-03    -195.860E-03    -190.323E-03     352.878E-03    -162.555E-03     109.392E-03     389.137E-03     96.9320E+06     97.9948E+06     66.6554E+06    -10.2809E+06    -8.49420E+06     64.8687E+06     97.9948E+06    -8.06753E+06
            1940     138.702E-03     872.964E-06     138.699E-03     267.063E-03    -132.104E-03    -134.959E-03    -134.281E-03     266.903E-03    -132.622E-03     15.3504E-03     267.708E-03     82.2170E+06    -118.161E+06    -121.448E+06    -201.926E+06    -120.425E+06    -201.744E+06    -119.366E+06    -3.52302E+06
            1941     138.731E-03     1.75115E-03     138.720E-03     267.714E-03    -133.084E-03    -134.630E-03    -133.828E-03     267.286E-03    -133.458E-03     25.5751E-03     268.095E-03     77.3266E+06    -106.531E+06    -117.514E+06    -188.359E+06    -117.854E+06    -187.815E+06    -106.736E+06    -5.32180E+06
            1942     138.784E-03     2.62548E-03     138.759E-03     270.057E-03    -133.803E-03    -136.254E-03    -135.411E-03     269.214E-03    -133.803E-03     36.6200E-03     270.580E-03     75.4120E+06    -87.7784E+06    -112.092E+06    -171.923E+06    -113.216E+06    -170.800E+06    -87.7784E+06    -7.61671E+06
            1943     138.850E-03     3.49917E-03     138.806E-03     273.628E-03    -134.478E-03    -139.149E-03    -137.836E-03     272.315E-03    -134.478E-03     46.3018E-03     274.505E-03     76.7902E+06    -65.0591E+06    -104.036E+06    -153.029E+06    -106.175E+06    -150.891E+06    -65.0591E+06    -9.32448E+06
            1944     138.922E-03     4.37079E-03     138.854E-03     280.146E-03    -135.595E-03    -144.551E-03    -142.717E-03     278.312E-03    -135.595E-03     55.5439E-03     281.551E-03     80.8243E+06    -40.5751E+06    -94.4038E+06    -133.108E+06    -98.3002E+06    -129.212E+06    -40.5751E+06    -11.0147E+06
            1945     139.014E-03     5.23385E-03     138.916E-03     288.034E-03    -137.209E-03    -150.825E-03    -148.506E-03     285.715E-03    -137.209E-03     63.4945E-03     290.140E-03     86.6972E+06    -18.1705E+06    -84.1477E+06    -115.917E+06    -90.4796E+06    -109.586E+06    -18.1705E+06    -12.2905E+06
            1946     139.114E-03     6.09417E-03     138.981E-03     294.994E-03    -139.068E-03    -155.926E-03    -152.953E-03     292.021E-03    -139.068E-03     72.7178E-03     298.311E-03     91.2398E+06     1.73746E+06    -72.1413E+06    -99.8564E+06    -82.3104E+06    -89.6873E+06     1.73746E+06    -12.7524E+06
            1947     139.234E-03     6.95585E-03     139.060E-03     301.971E-03    -140.989E-03    -160.982E-03    -157.470E-03     298.460E-03    -140.989E-03     80.3090E-03     306.348E-03     94.2911E+06     20.7139E+06    -57.1495E+06    -84.0318E+06    -73.5767E+06    -67.6046E+06     20.7139E+06    -11.9788E+06
            1948     139.353E-03     7.80681E-03     139.134E-03     309.958E-03    -143.029E-03    -166.929E-03    -163.206E-03     306.236E-03    -143.029E-03     83.8541E-03     315.522E-03     98.0118E+06     37.5015E+06    -40.7131E+06    -72.1417E+06    -65.8764E+06    -46.9783E+06     37.5015E+06    -11.7776E+06
            1949     139.480E-03     8.65403E-03     139.211E-03     318.479E-03    -145.210E-03    -173.269E-03    -169.047E-03     314.257E-03    -145.210E-03     90.5122E-03     326.362E-03     100.735E+06     52.1133E+06    -20.0342E+06    -62.5616E+06    -57.7087E+06    -24.8871E+06     52.1133E+06    -12.9459E+06
            1950     139.625E-03     9.49844E-03     139.301E-03     326.599E-03    -147.492E-03    -179.107E-03    -174.876E-03     322.368E-03    -147.492E-03     91.8010E-03     335.911E-03     102.417E+06     64.7364E+06     3.51709E+06    -53.2307E+06    -49.3587E+06    -354.871E+03     64.7364E+06    -13.8020E+06
            1951     139.771E-03     10.3373E-03     139.388E-03     334.678E-03    -149.842E-03    -184.836E-03    -180.301E-03     330.143E-03    -149.842E-03     96.2937E-03     347.070E-03     105.903E+06     75.8572E+06     30.8022E+06    -44.4197E+06    -40.9759E+06     27.3584E+06     75.8572E+06    -15.5910E+06
            1952     139.941E-03     11.1736E-03     139.494E-03     341.177E-03    -152.187E-03    -188.990E-03    -184.535E-03     336.722E-03    -152.187E-03     96.3349E-03     355.516E-03     107.853E+06     83.2849E+06     59.6373E+06    -33.9376E+06    -30.4730E+06     56.1727E+06     83.2849E+06    -17.2221E+06
            1953     140.101E-03     12.0062E-03     139.586E-03     348.011E-03    -154.527E-03    -193.484E-03    -189.499E-03     344.026E-03    -154.527E-03     92.4856E-03     364.336E-03     94.7074E+06     75.2948E+06     65.7941E+06    -23.7828E+06    -20.5579E+06     62.5693E+06     75.2948E+06    -16.1483E+06
            1954     140.278E-03     12.8362E-03     139.690E-03     357.710E-03    -156.991E-03    -200.719E-03    -196.145E-03     353.136E-03    -156.991E-03     100.602E-03     378.605E-03     73.5922E+06     57.1807E+06     51.5567E+06    -19.0175E+06    -15.0959E+06     47.6350E+06     57.1807E+06    -15.7808E+06
            1955     140.483E-03     13.6524E-03     139.818E-03     365.633E-03    -159.568E-03    -206.065E-03    -199.778E-03     359.346E-03    -159.568E-03     118.492E-03     397.014E-03     56.4559E+06     44.5601E+06     35.3765E+06    -15.5458E+06    -11.3132E+06     31.1439E+06     44.5601E+06    -13.5936E+06
            1956     140.738E-03     14.4789E-03     139.991E-03     363.779E-03    -162.173E-03    -201.605E-03    -195.977E-03     358.151E-03    -162.173E-03     110.425E-03     394.747E-03     88.9201E+06     92.9899E+06     57.1200E+06    -7.41721E+06    -5.25854E+06     54.9613E+06     92.9899E+06    -7.03763E+06
            1957     140.004E-03     880.111E-06     140.001E-03     262.630E-03    -129.491E-03    -133.139E-03    -132.308E-03     262.476E-03    -130.168E-03     13.9407E-03     263.179E-03     74.1932E+06    -118.213E+06    -125.153E+06    -195.430E+06    -124.481E+06    -195.137E+06    -119.178E+06    -719.074E+03
            1958     140.035E-03     1.75302E-03     140.024E-03     264.796E-03    -131.474E-03    -133.322E-03    -132.824E-03     264.298E-03    -131.474E-03     27.2914E-03     265.155E-03     68.6579E+06    -108.357E+06    -121.752E+06    -182.308E+06    -121.634E+06    -182.221E+06    -108.562E+06    -1.86024E+06
            1959     140.089E-03     2.62866E-03     140.064E-03     265.968E-03    -131.972E-03    -133.997E-03    -133.129E-03     265.101E-03    -131.972E-03     37.0652E-03     266.402E-03     66.8170E+06    -90.1920E+06    -116.932E+06    -165.418E+06    -117.437E+06    -164.913E+06    -90.1920E+06    -3.34931E+06
            1960     140.152E-03     3.50736E-03     140.108E-03     268.556E-03    -132.449E-03    -136.107E-03    -134.847E-03     267.296E-03    -132.449E-03     44.8597E-03     269.267E-03     68.3232E+06    -68.2856E+06    -110.903E+06    -146.205E+06    -111.800E+06    -145.308E+06    -68.2856E+06    -5.01858E+06
            1961     140.241E-03     4.38009E-03     140.172E-03     273.937E-03    -133.274E-03    -140.664E-03    -138.748E-03     272.022E-03    -133.274E-03     55.9365E-03     275.066E-03     73.8149E+06    -44.6855E+06    -103.161E+06    -126.736E+06    -105.452E+06    -124.444E+06    -44.6855E+06    -5.03241E+06
            1962     140.339E-03     5.24915E-03     140.241E-03     281.540E-03    -134.572E-03    -146.968E-03    -144.286E-03     278.858E-03    -134.572E-03     67.4315E-03     283.309E-03     81.6321E+06    -21.7337E+06    -93.2664E+06    -110.045E+06    -98.8732E+06    -104.438E+06    -21.7337E+06    -5.67087E+06
            1963     140.450E-03     6.11349E-03     140.317E-03     289.688E-03    -136.272E-03    -153.416E-03    -150.123E-03     286.395E-03    -136.272E-03     76.0514E-03     292.515E-03     88.5735E+06    -1.60585E+06    -78.6720E+06    -98.2595E+06    -91.6589E+06    -85.2727E+06    -1.60585E+06    -6.94740E+06
            1964     140.571E-03     6.97213E-03     140.398E-03     296.152E-03    -138.150E-03    -158.003E-03    -154.371E-03     292.521E-03    -138.150E-03     80.8876E-03     299.847E-03     93.4557E+06     16.2939E+06    -61.2076E+06    -87.3271E+06    -83.3393E+06    -65.1954E+06     16.2939E+06    -8.01060E+06
            1965     140.708E-03     7.83263E-03     140.490E-03     304.049E-03    -140.125E-03    -163.924E-03    -159.908E-03     300.033E-03    -140.125E-03     86.2964E-03     308.838E-03     97.0511E+06     34.1154E+06    -40.2388E+06    -75.3452E+06    -72.6666E+06    -42.9174E+06     34.1154E+06    -8.95006E+06
            1966     140.845E-03     8.68352E-03     140.577E-03     315.382E-03    -142.358E-03    -173.024E-03    -168.370E-03     310.727E-03    -142.358E-03     94.8524E-03     322.329E-03     100.522E+06     50.5090E+06    -16.7211E+06    -64.8137E+06    -62.2587E+06    -19.2761E+06     50.5090E+06    -10.4143E+06
            1967     141.005E-03     9.52619E-03     140.683E-03     325.705E-03    -144.882E-03    -180.823E-03    -176.095E-03     320.977E-03    -144.882E-03     97.3415E-03     334.348E-03     103.616E+06     64.4473E+06     7.65934E+06    -54.7701E+06    -52.0289E+06     4.91816E+06     64.4473E+06    -12.7860E+06
            1968     141.158E-03     10.3643E-03     140.777E-03     334.292E-03    -147.524E-03    -186.768E-03    -181.864E-03     329.389E-03    -147.524E-03     100.520E-03     345.867E-03     108.412E+06     77.7700E+06     40.0801E+06    -43.6648E+06    -40.2425E+06     36.6578E+06     77.7700E+06    -16.5415E+06
            1969     141.340E-03     11.1983E-03     140.896E-03     341.859E-03    -150.159E-03    -191.700E-03    -186.890E-03     337.048E-03    -150.159E-03     100.642E-03     355.282E-03     109.589E+06     83.3096E+06     64.7276E+06    -34.2062E+06    -30.1157E+06     60.6370E+06     83.3096E+06    -19.6406E+06
            1970     141.507E-03     12.0275E-03     140.995E-03     351.520E-03    -152.851E-03    -198.669E-03    -194.176E-03     347.027E-03    -152.851E-03     98.9591E-03     367.169E-03     95.0453E+06     73.3342E+06     64.8071E+06    -25.6520E+06    -21.2860E+06     60.4412E+06     73.3342E+06    -18.9545E+06
            1971     141.701E-03     12.8482E-03     141.117E-03     362.545E-03    -155.726E-03    -206.819E-03    -201.860E-03     357.585E-03    -155.726E-03     105.749E-03     383.811E-03     71.0557E+06     56.1245E+06     50.7479E+06    -17.4242E+06    -13.3965E+06     46.7202E+06     56.1245E+06    -15.6307E+06
            1972     141.917E-03     13.6711E-03     141.257E-03     368.480E-03    -158.671E-03    -209.809E-03    -203.827E-03     362.498E-03    -158.671E-03     116.563E-03     400.594E-03     52.7149E+06     42.1936E+06     29.5964E+06    -14.1467E+06    -9.96430E+06     25.4140E+06     42.1936E+06    -12.5050E+06
            1973     142.158E-03     14.4910E-03     141.417E-03     369.940E-03    -161.663E-03    -208.276E-03    -203.030E-03     364.693E-03    -161.663E-03     108.255E-03     400.653E-03     86.7708E+06     87.8409E+06     45.8401E+06    -10.7593E+06    -8.18426E+06     43.2650E+06     87.8409E+06    -6.98031E+06
            1974     141.302E-03     878.143E-06     141.299E-03     260.366E-03    -129.221E-03    -131.145E-03    -130.261E-03     260.208E-03    -129.947E-03     14.3437E-03     260.946E-03     61.7983E+06    -130.704E+06    -141.464E+06    -197.021E+06    -137.996E+06    -196.727E+06    -134.465E+06     2.25673E+06
            1975     141.336E-03     1.75759E-03     141.325E-03     261.791E-03    -130.189E-03    -131.602E-03    -131.131E-03     261.368E-03    -130.238E-03     24.5777E-03     262.150E-03     55.8079E+06    -120.390E+06    -135.075E+06    -181.423E+06    -135.483E+06    -181.016E+06    -120.390E+06     2.39020E+06
            1976     141.387E-03     2.63582E-03     141.362E-03     264.083E-03    -130.742E-03    -133.341E-03    -132.515E-03     263.258E-03    -130.742E-03     35.8539E-03     264.507E-03     54.8168E+06    -102.040E+06    -130.776E+06    -164.177E+06    -131.708E+06    -163.245E+06    -102.040E+06     3.07430E+06
            1977     141.459E-03     3.50721E-03     141.415E-03     266.551E-03    -131.362E-03    -135.189E-03    -133.949E-03     265.311E-03    -131.362E-03     44.3551E-03     267.230E-03     60.0783E+06    -78.2045E+06    -122.786E+06    -146.346E+06    -126.986E+06    -142.146E+06    -78.2045E+06     2.69032E+06
            1978     141.543E-03     4.38304E-03     141.475E-03     269.230E-03    -131.998E-03    -137.232E-03    -135.259E-03     267.257E-03    -131.998E-03     56.0558E-03     270.226E-03     69.0818E+06    -53.6005E+06    -113.937E+06    -128.390E+06    -120.302E+06    -122.024E+06    -53.6005E+06     1.64957E+06
            1979     141.653E-03     5.25955E-03     141.555E-03     275.673E-03    -132.859E-03    -142.814E-03    -140.010E-03     272.869E-03    -132.859E-03     68.1852E-03     277.265E-03     78.0358E+06    -29.0945E+06    -98.4371E+06    -112.995E+06    -111.240E+06    -100.192E+06    -29.0945E+06     611.319E+03
            1980     141.776E-03     6.12767E-03     141.644E-03     284.811E-03    -134.273E-03    -150.538E-03    -147.189E-03     281.462E-03    -134.273E-03     76.0525E-03     287.309E-03     86.3364E+06    -6.56087E+06    -78.3156E+06    -102.034E+06    -100.868E+06    -79.4818E+06    -6.56087E+06    -2.27062E+06
            1981     141.910E-03     6.98837E-03     141.738E-03     292.412E-03    -136.106E-03    -156.306E-03    -152.770E-03     288.876E-03    -136.106E-03     79.3351E-03     295.739E-03     91.7722E+06     12.5384E+06    -58.7903E+06    -90.7133E+06    -89.3200E+06    -60.1836E+06     12.5384E+06    -6.11203E+06
            1982     142.041E-03     7.84593E-03     141.824E-03     300.385E-03    -138.111E-03    -162.274E-03    -158.233E-03     296.344E-03    -138.111E-03     85.9419E-03     304.771E-03     95.8324E+06     30.4340E+06    -35.0440E+06    -79.1351E+06    -76.7262E+06    -37.4529E+06     30.4340E+06    -9.51763E+06
            1983     142.209E-03     8.70045E-03     141.943E-03     311.347E-03    -140.341E-03    -171.007E-03    -166.324E-03     306.665E-03    -140.341E-03     94.5743E-03     317.345E-03     99.2631E+06     48.3877E+06    -10.4985E+06    -65.8855E+06    -62.6882E+06    -13.6959E+06     48.3877E+06    -12.6349E+06
            1984     142.374E-03     9.54579E-03     142.053E-03     322.869E-03    -142.895E-03    -179.974E-03    -175.259E-03     318.154E-03    -142.895E-03     96.9055E-03     330.523E-03     102.444E+06     64.9347E+06     15.9805E+06    -52.4604E+06    -48.5036E+06     12.0237E+06     64.9347E+06    -15.8744E+06
            1985     142.550E-03     10.3832E-03     142.172E-03     333.054E-03    -145.672E-03    -187.383E-03    -182.571E-03     328.242E-03    -145.672E-03     99.6082E-03     343.371E-03     108.485E+06     78.3566E+06     48.0816E+06    -41.3222E+06    -37.4251E+06     44.1845E+06     78.3566E+06    -17.9435E+06
            1986     142.730E-03     11.2168E-03     142.288E-03     342.611E-03    -148.542E-03    -194.069E-03    -189.285E-03     337.827E-03    -148.542E-03     100.842E-03     354.882E-03     109.012E+06     82.4545E+06     67.9676E+06    -33.0226E+06    -29.5002E+06     64.4452E+06     82.4545E+06    -18.4052E+06
            1987     142.923E-03     12.0454E-03     142.414E-03     354.643E-03    -151.550E-03    -203.093E-03    -198.282E-03     349.832E-03    -151.550E-03     103.142E-03     369.468E-03     96.5638E+06     71.0762E+06     64.2033E+06    -28.7002E+06    -24.5754E+06     60.0784E+06     71.0762E+06    -18.6988E+06
            1988     143.130E-03     12.8644E-03     142.551E-03     365.781E-03    -154.751E-03    -211.030E-03    -205.993E-03     360.744E-03    -154.751E-03     107.311E-03     386.615E-03     78.2389E+06     54.0290E+06     50.2515E+06    -26.0198E+06    -20.3473E+06     46.2162E+06     52.3918E+06    -19.4654E+06
            1989     143.348E-03     13.6761E-03     142.694E-03     371.191E-03    -158.001E-03    -213.189E-03    -207.813E-03     365.814E-03    -158.001E-03     111.529E-03     401.099E-03     55.1598E+06     37.4837E+06     22.5174E+06    -21.7177E+06    -13.0940E+06     15.5309E+06     35.8465E+06    -14.9178E+06
            1990     143.587E-03     14.4938E-03     142.854E-03     375.191E-03    -161.327E-03    -213.864E-03    -208.700E-03     370.027E-03    -161.327E-03     109.526E-03     404.148E-03     82.0654E+06     82.9308E+06     35.5643E+06    -10.7325E+06    -4.98573E+06     29.8176E+06     82.9308E+06    -5.63631E+06
            1991     142.601E-03     877.764E-06     142.599E-03     262.325E-03    -130.656E-03    -131.669E-03    -131.300E-03     262.218E-03    -130.917E-03     11.4668E-03     262.930E-03     34.7249E+06    -164.938E+06    -174.710E+06    -202.700E+06    -171.825E+06    -201.823E+06    -168.700E+06     1.90959E+06
            1992     142.629E-03     1.75522E-03     142.618E-03     261.558E-03    -130.402E-03    -131.155E-03    -130.378E-03     261.263E-03    -130.885E-03     19.9560E-03     261.936E-03     33.4295E+06    -152.505E+06    -163.999E+06    -189.459E+06    -167.231E+06    -186.227E+06    -152.505E+06     5.64687E+06
            1993     142.687E-03     2.63234E-03     142.663E-03     262.350E-03    -130.289E-03    -132.061E-03    -130.822E-03     261.631E-03    -130.809E-03     33.1831E-03     262.804E-03     41.1628E+06    -127.219E+06    -151.475E+06    -174.632E+06    -160.528E+06    -165.578E+06    -127.219E+06     6.74901E+06
            1994     142.761E-03     3.51174E-03     142.717E-03     264.540E-03    -130.722E-03    -133.818E-03    -132.356E-03     263.378E-03    -131.021E-03     42.7314E-03     265.299E-03     52.0607E+06    -97.3730E+06    -134.945E+06    -156.415E+06    -149.188E+06    -142.172E+06    -97.3730E+06     6.41145E+06
            1995     142.844E-03     4.38771E-03     142.777E-03     268.897E-03    -131.596E-03    -137.300E-03    -135.476E-03     267.072E-03    -131.596E-03     53.8417E-03     270.070E-03     63.6958E+06    -66.8407E+06    -117.609E+06    -137.647E+06    -135.922E+06    -119.334E+06    -66.8407E+06     4.56782E+06
            1996     142.959E-03     5.26003E-03     142.863E-03     274.271E-03    -132.508E-03    -141.762E-03    -139.210E-03     271.719E-03    -132.508E-03     64.8057E-03     275.996E-03     74.1411E+06    -39.1105E+06    -95.6003E+06    -122.322E+06    -121.703E+06    -96.2194E+06    -39.1105E+06     1.22640E+06
            1997     143.096E-03     6.12988E-03     142.964E-03     279.932E-03    -133.667E-03    -146.265E-03    -143.186E-03     276.853E-03    -133.667E-03     72.1176E-03     282.317E-03     81.9057E+06    -13.4448E+06    -71.1410E+06    -106.724E+06    -105.887E+06    -71.9785E+06    -13.4448E+06    -2.91029E+06
            1998     143.238E-03     6.99694E-03     143.067E-03     288.184E-03    -135.140E-03    -153.044E-03    -149.607E-03     284.747E-03    -135.140E-03     77.5571E-03     291.405E-03     88.3754E+06     8.89652E+06    -48.6443E+06    -92.2761E+06    -89.8219E+06    -51.0985E+06     8.89652E+06    -8.78582E+06
            1999     143.386E-03     7.85453E-03     143.170E-03     299.598E-03    -137.067E-03    -162.530E-03    -158.377E-03     295.445E-03    -137.067E-03     87.0402E-03     304.065E-03     92.5102E+06     28.2458E+06    -24.9649E+06    -78.2706E+06    -73.7606E+06    -29.4749E+06     28.2458E+06    -14.2618E+06
            2000     143.555E-03     8.70701E-03     143.291E-03     309.947E-03    -139.367E-03    -170.580E-03    -165.846E-03     305.213E-03    -139.367E-03     94.9077E-03     315.834E-03     96.2384E+06     46.0778E+06    -1.32828E+06    -64.4880E+06    -58.7945E+06    -7.02176E+06     46.0778E+06    -18.0072E+06
            2001     143.745E-03     9.55546E-03     143.427E-03     319.568E-03    -141.873E-03    -177.695E-03    -172.877E-03     314.749E-03    -141.873E-03     97.4104E-03     326.891E-03     100.885E+06     62.6337E+06     22.9738E+06    -51.7362E+06    -45.9185E+06     17.1561E+06     62.6337E+06    -19.8356E+06
            2002     143.930E-03     10.3958E-03     143.554E-03     331.909E-03    -144.617E-03    -187.292E-03    -182.417E-03     327.034E-03    -144.617E-03     100.128E-03     341.371E-03     105.578E+06     76.8452E+06     50.5976E+06    -39.0610E+06    -34.5223E+06     46.0589E+06     76.8452E+06    -19.2633E+06
            2003     144.128E-03     11.2283E-03     143.690E-03     345.104E-03    -147.677E-03    -197.427E-03    -192.772E-03     340.448E-03    -147.677E-03     100.032E-03     356.678E-03     103.007E+06     81.7810E+06     65.6045E+06    -28.2805E+06    -25.2299E+06     62.5538E+06     81.7810E+06    -16.1030E+06
            2004     144.334E-03     12.0512E-03     143.830E-03     356.728E-03    -150.962E-03    -205.766E-03    -201.167E-03     352.129E-03    -150.962E-03     101.286E-03     370.759E-03     92.4315E+06     75.4375E+06     66.9006E+06    -20.8297E+06    -17.9341E+06     64.8547E+06     74.5878E+06    -15.3306E+06
            2005     144.561E-03     12.8690E-03     143.987E-03     365.111E-03    -154.316E-03    -210.795E-03    -206.006E-03     360.322E-03    -154.316E-03     104.588E-03     384.051E-03     76.2308E+06     61.5908E+06     51.6327E+06    -18.0556E+06    -13.5421E+06     49.6062E+06     59.1038E+06    -16.3891E+06
            2006     144.786E-03     13.6846E-03     144.138E-03     372.855E-03    -157.653E-03    -215.203E-03    -209.872E-03     367.524E-03    -157.653E-03     111.395E-03     399.575E-03     56.6349E+06     36.8123E+06     17.0965E+06    -26.0132E+06    -13.6992E+06     6.41981E+06     35.1751E+06    -15.6630E+06
            2007     145.022E-03     14.4978E-03     144.296E-03     379.151E-03    -161.152E-03    -217.999E-03    -212.563E-03     373.714E-03    -161.152E-03     113.357E-03     406.694E-03     83.5744E+06     73.9228E+06     26.3893E+06    -21.8687E+06    -10.9253E+06     15.4459E+06     73.9228E+06    -11.0758E+06
            2008     143.902E-03     873.910E-06     143.899E-03     266.900E-03    -132.064E-03    -134.835E-03    -132.223E-03     266.870E-03    -134.648E-03     4.44342E-03     267.623E-03     46.0633E+06    -196.485E+06    -235.488E+06    -246.522E+06    -238.242E+06    -205.140E+06    -235.112E+06    -1.33150E+06
            2009     143.929E-03     1.75051E-03     143.919E-03     264.172E-03    -131.265E-03    -132.908E-03    -131.026E-03     263.934E-03    -132.908E-03     17.4882E-03     264.651E-03     48.2740E+06    -178.760E+06    -216.844E+06    -231.761E+06    -227.689E+06    -186.955E+06    -212.721E+06    -1.09447E+06
            2010     143.983E-03     2.62950E-03     143.959E-03     263.679E-03    -131.373E-03    -132.306E-03    -130.842E-03     263.148E-03    -132.306E-03     28.4445E-03     264.233E-03     51.0247E+06    -152.865E+06    -185.462E+06    -211.166E+06    -207.325E+06    -165.772E+06    -176.397E+06    -3.59976E+06
            2011     144.056E-03     3.50854E-03     144.013E-03     265.881E-03    -131.865E-03    -134.016E-03    -132.793E-03     265.049E-03    -132.256E-03     35.8118E-03     266.755E-03     56.7319E+06    -121.129E+06    -150.819E+06    -185.525E+06    -182.528E+06    -140.093E+06    -134.852E+06    -6.54261E+06
            2012     144.151E-03     4.38301E-03     144.085E-03     271.059E-03    -132.832E-03    -138.227E-03    -136.879E-03     269.710E-03    -132.832E-03     46.3820E-03     272.471E-03     63.7277E+06    -88.9629E+06    -117.615E+06    -159.978E+06    -155.012E+06    -117.252E+06    -94.2920E+06    -8.93899E+06
            2013     144.270E-03     5.25184E-03     144.175E-03     274.807E-03    -133.727E-03    -141.080E-03    -139.062E-03     272.789E-03    -133.727E-03     57.4248E-03     276.875E-03     68.2512E+06    -56.8397E+06    -87.4520E+06    -133.066E+06    -128.317E+06    -92.2012E+06    -56.8397E+06    -10.2227E+06
            2014     144.405E-03     6.12323E-03     144.275E-03     277.570E-03    -134.565E-03    -143.005E-03    -140.344E-03     274.909E-03    -134.565E-03     66.5351E-03     280.378E-03     75.4035E+06    -24.5706E+06    -59.7459E+06    -109.924E+06    -104.780E+06    -64.8897E+06    -24.5706E+06    -13.1975E+06
            2015     144.557E-03     6.99331E-03     144.388E-03     285.121E-03    -135.576E-03    -149.544E-03    -146.243E-03     281.820E-03    -135.576E-03     75.3825E-03     288.744E-03     81.9329E+06     2.48478E+06    -36.0245E+06    -91.2451E+06    -84.7097E+06    -42.5599E+06     2.48478E+06    -16.1563E+06
            2016     144.723E-03     7.85761E-03     144.509E-03     298.027E-03    -137.199E-03    -160.828E-03    -156.756E-03     293.954E-03    -137.199E-03     85.9938E-03     302.878E-03     88.9839E+06     24.7617E+06    -14.1592E+06    -76.6457E+06    -69.6145E+06    -21.1903E+06     24.7617E+06    -19.6286E+06
            2017     144.912E-03     8.70691E-03     144.651E-03     309.229E-03    -139.395E-03    -169.834E-03    -165.343E-03     304.737E-03    -139.395E-03     92.3135E-03     315.406E-03     96.0433E+06     43.4009E+06     8.85760E+06    -64.8044E+06    -56.5958E+06     648.971E+03     43.4009E+06    -23.1194E+06
            2018     145.097E-03     9.55430E-03     144.782E-03     319.009E-03    -141.872E-03    -177.138E-03    -172.454E-03     314.325E-03    -141.872E-03     95.9327E-03     326.444E-03     100.806E+06     60.0785E+06     29.9302E+06    -52.2105E+06    -43.2308E+06     20.9505E+06     60.0785E+06    -25.2232E+06
            2019     145.312E-03     10.3988E-03     144.939E-03     331.941E-03    -144.618E-03    -187.323E-03    -182.576E-03     327.194E-03    -144.618E-03     98.7876E-03     341.044E-03     101.642E+06     74.6670E+06     49.8554E+06    -37.0414E+06    -29.6494E+06     42.4634E+06     74.6670E+06    -23.5149E+06
            2020     145.527E-03     11.2271E-03     145.093E-03     346.891E-03    -147.755E-03    -199.136E-03    -194.503E-03     342.258E-03    -147.755E-03     100.126E-03     358.417E-03     96.4920E+06     82.5995E+06     62.8466E+06    -22.2297E+06    -16.8803E+06     57.4972E+06     82.5995E+06    -19.5021E+06
            2021     145.753E-03     12.0468E-03     145.254E-03     357.782E-03    -151.137E-03    -206.646E-03    -202.147E-03     353.283E-03    -151.137E-03     100.318E-03     372.114E-03     85.8152E+06     80.5892E+06     66.6982E+06    -11.1326E+06    -7.12457E+06     63.5399E+06     79.7395E+06    -15.3711E+06
            2022     145.979E-03     12.8653E-03     145.411E-03     363.246E-03    -154.469E-03    -208.777E-03    -204.275E-03     358.743E-03    -154.469E-03     101.070E-03     381.133E-03     65.2558E+06     66.2807E+06     49.2458E+06    -4.83055E+06    -2.00254E+06     47.2675E+06     65.4310E+06    -10.6759E+06
            2023     146.214E-03     13.6875E-03     145.572E-03     372.769E-03    -157.760E-03    -215.009E-03    -209.742E-03     367.502E-03    -157.760E-03     110.646E-03     397.627E-03     50.6530E+06     45.2203E+06     20.2585E+06    -12.9176E+06     524.487E+03     6.81639E+06     45.2203E+06    -8.15745E+06
            2024     146.479E-03     14.4961E-03     145.760E-03     378.266E-03    -161.235E-03    -217.031E-03    -211.952E-03     373.187E-03    -161.235E-03     109.101E-03     404.684E-03     80.8091E+06     75.3916E+06     26.4186E+06    -16.3985E+06     1.13791E+06     8.88218E+06     75.3916E+06    -7.27006E+06
            2025     145.208E-03     870.148E-06     145.206E-03     271.888E-03    -133.486E-03    -138.402E-03    -134.170E-03     271.802E-03    -137.632E-03     853.783E-06     272.591E-03     71.4083E+06    -193.592E+06    -257.576E+06    -270.269E+06    -263.901E+06    -195.351E+06    -262.186E+06    -8.40606E+06
            2026     145.232E-03     1.74704E-03     145.221E-03     271.579E-03    -134.566E-03    -137.013E-03    -135.653E-03     271.429E-03    -135.776E-03     14.5280E-03     272.018E-03     82.5010E+06    -167.301E+06    -240.964E+06    -256.002E+06    -251.903E+06    -171.400E+06    -240.964E+06    -16.3392E+06
            2027     145.287E-03     2.62048E-03     145.263E-03     272.064E-03    -135.468E-03    -136.596E-03    -135.926E-03     271.807E-03    -135.881E-03     19.5943E-03     272.731E-03     84.9941E+06    -144.222E+06    -208.434E+06    -239.763E+06    -231.315E+06    -152.670E+06    -208.434E+06    -25.5392E+06
            2028     145.358E-03     3.49288E-03     145.316E-03     273.380E-03    -136.049E-03    -137.331E-03    -136.774E-03     272.914E-03    -136.140E-03     26.7642E-03     274.428E-03     88.1582E+06    -117.914E+06    -170.765E+06    -218.320E+06    -206.622E+06    -129.611E+06    -170.765E+06    -31.3619E+06
            2029     145.462E-03     4.36400E-03     145.397E-03     274.948E-03    -136.195E-03    -138.753E-03    -137.620E-03     274.135E-03    -136.515E-03     35.8372E-03     276.602E-03     93.4305E+06    -90.2293E+06    -133.183E+06    -195.589E+06    -180.103E+06    -107.984E+06    -130.915E+06    -36.2531E+06
            2030     145.579E-03     5.23766E-03     145.485E-03     276.132E-03    -136.543E-03    -139.589E-03    -137.998E-03     274.868E-03    -136.870E-03     44.6858E-03     278.502E-03     96.6114E+06    -60.9274E+06    -98.5536E+06    -169.847E+06    -149.891E+06    -87.2482E+06    -92.1887E+06    -40.1006E+06
            2031     145.717E-03     6.10897E-03     145.589E-03     278.655E-03    -137.238E-03    -141.417E-03    -139.633E-03     276.879E-03    -137.246E-03     53.4291E-03     281.822E-03     95.8812E+06    -31.0229E+06    -64.2110E+06    -138.718E+06    -118.441E+06    -61.7820E+06    -53.7292E+06    -39.0033E+06
            2032     145.869E-03     6.97953E-03     145.702E-03     285.637E-03    -137.944E-03    -147.693E-03    -145.130E-03     283.074E-03    -137.944E-03     65.5531E-03     289.955E-03     93.2042E+06    -7.91648E+06    -31.2263E+06    -109.862E+06    -90.2781E+06    -41.9581E+06    -16.7685E+06    -35.5462E+06
            2033     146.060E-03     7.83974E-03     145.849E-03     295.307E-03    -139.157E-03    -156.150E-03    -152.807E-03     291.964E-03    -139.157E-03     77.1378E-03     300.919E-03     92.4909E+06     17.7027E+06    -2.44546E+06    -82.4993E+06    -65.2963E+06    -18.3132E+06     16.3675E+06    -31.9555E+06
            2034     146.255E-03     8.69851E-03     145.996E-03     305.921E-03    -140.858E-03    -165.064E-03    -161.205E-03     302.063E-03    -140.858E-03     84.7287E-03     312.645E-03     94.1322E+06     42.3705E+06     20.0948E+06    -60.7988E+06    -45.7082E+06     5.00415E+06     42.3705E+06    -30.6461E+06
            2035     146.462E-03     9.54607E-03     146.151E-03     319.865E-03    -143.063E-03    -176.802E-03    -172.337E-03     315.399E-03    -143.063E-03     93.7247E-03     327.919E-03     95.6907E+06     61.6813E+06     34.9276E+06    -44.3206E+06    -31.5723E+06     22.1794E+06     61.6813E+06    -28.3912E+06
            2036     146.684E-03     10.3803E-03     146.316E-03     333.411E-03    -145.738E-03    -187.673E-03    -182.875E-03     328.613E-03    -145.738E-03     99.4989E-03     343.055E-03     97.4779E+06     75.2845E+06     48.8883E+06    -32.4357E+06    -23.0948E+06     39.5474E+06     75.2845E+06    -25.5197E+06
            2037     146.923E-03     11.2157E-03     146.495E-03     345.904E-03    -148.720E-03    -197.184E-03    -192.100E-03     340.819E-03    -148.720E-03     104.508E-03     358.250E-03     96.9501E+06     84.0318E+06     62.6606E+06    -21.8024E+06    -14.1862E+06     55.0444E+06     84.0318E+06    -23.7247E+06
            2038     147.171E-03     12.0392E-03     146.678E-03     355.832E-03    -151.850E-03    -203.983E-03    -199.218E-03     351.068E-03    -151.850E-03     102.565E-03     370.466E-03     84.9195E+06     80.8068E+06     60.6063E+06    -12.3497E+06    -5.54523E+06     53.8018E+06     80.8068E+06    -19.1087E+06
            2039     147.395E-03     12.8595E-03     146.833E-03     363.890E-03    -155.024E-03    -208.866E-03    -204.224E-03     359.248E-03    -155.024E-03     102.524E-03     380.755E-03     63.3826E+06     65.8795E+06     41.0069E+06    -4.76618E+06     251.700E+03     35.9891E+06     65.8795E+06    -10.4065E+06
            2040     147.644E-03     13.6729E-03     147.010E-03     373.536E-03    -158.221E-03    -215.315E-03    -209.425E-03     367.646E-03    -158.221E-03     116.788E-03     398.312E-03     45.5107E+06     43.5679E+06     16.5826E+06    -8.25511E+06     2.81554E+06     5.51193E+06     43.5679E+06    -3.86507E+06
            2041     147.925E-03     14.4880E-03     147.214E-03     373.664E-03    -161.515E-03    -212.149E-03    -207.074E-03     368.589E-03    -161.515E-03     107.224E-03     400.257E-03     75.9956E+06     73.9154E+06     19.7783E+06    -12.2761E+06     1.64278E+06     5.85945E+06     73.9154E+06     944.989E+03
            2042     146.519E-03     875.884E-06     146.516E-03     282.536E-03    -137.803E-03    -144.733E-03    -142.877E-03     282.456E-03    -139.579E-03     186.726E-06     283.088E-03     53.2895E+06    -159.070E+06    -206.371E+06    -216.548E+06    -211.398E+06    -162.946E+06    -207.644E+06    -12.3840E+06
            2043     146.557E-03     1.73756E-03     146.547E-03     287.647E-03    -142.032E-03    -145.615E-03    -145.554E-03     287.586E-03    -142.032E-03     3.34004E-03     288.154E-03     77.1537E+06    -129.949E+06    -196.422E+06    -213.983E+06    -203.415E+06    -140.517E+06    -196.422E+06    -26.7808E+06
            2044     146.602E-03     2.60236E-03     146.579E-03     286.539E-03    -142.427E-03    -144.112E-03    -143.322E-03     286.462E-03    -143.139E-03     5.72849E-03     287.374E-03     94.6753E+06    -104.815E+06    -175.447E+06    -211.699E+06    -194.192E+06    -122.322E+06    -175.447E+06    -38.7093E+06
            2045     146.681E-03     3.46855E-03     146.640E-03     284.723E-03    -141.135E-03    -143.588E-03    -141.354E-03     284.551E-03    -143.197E-03     14.3034E-03     285.961E-03     108.310E+06    -81.3929E+06    -149.711E+06    -205.648E+06    -180.439E+06    -106.602E+06    -149.711E+06    -48.9258E+06
            2046     146.775E-03     4.33677E-03     146.711E-03     283.209E-03    -140.137E-03    -143.072E-03    -139.941E-03     282.871E-03    -142.930E-03     22.3057E-03     285.078E-03     119.770E+06    -55.1759E+06    -120.594E+06    -192.904E+06    -161.628E+06    -86.4527E+06    -120.594E+06    -56.5496E+06
            2047     146.894E-03     5.20590E-03     146.801E-03     283.317E-03    -140.634E-03    -142.684E-03    -140.110E-03     282.794E-03    -142.684E-03     28.4537E-03     285.951E-03     128.897E+06    -33.0626E+06    -91.1932E+06    -180.451E+06    -142.853E+06    -70.6611E+06    -91.1932E+06    -63.6826E+06
            2048     147.029E-03     6.07616E-03     146.903E-03     285.708E-03    -142.096E-03    -143.613E-03    -142.267E-03     284.974E-03    -142.707E-03     33.8540E-03     289.171E-03     131.392E+06    -16.8340E+06    -63.9885E+06    -165.007E+06    -122.952E+06    -58.8894E+06    -63.9885E+06    -66.2506E+06
            2049     147.191E-03     6.94111E-03     147.027E-03     289.752E-03    -143.026E-03    -146.726E-03    -145.343E-03     288.421E-03    -143.078E-03     45.7800E-03     294.514E-03     126.757E+06    -1.36021E+06    -34.3334E+06    -140.705E+06    -99.1775E+06    -42.8880E+06    -34.3334E+06    -63.3146E+06
            2050     147.386E-03     7.80619E-03     147.179E-03     294.667E-03    -143.689E-03    -150.978E-03    -149.014E-03     292.749E-03    -143.735E-03     56.7315E-03     300.593E-03     120.188E+06     17.6467E+06    -7.44599E+06    -112.630E+06    -74.7270E+06    -23.5968E+06    -4.10521E+06    -58.0204E+06
            2051     147.589E-03     8.66694E-03     147.335E-03     303.025E-03    -144.769E-03    -158.256E-03    -155.886E-03     300.655E-03    -144.769E-03     64.1517E-03     309.855E-03     111.559E+06     37.6114E+06     18.0187E+06    -82.1953E+06    -52.0656E+06    -1.04720E+06     26.5477E+06    -49.3338E+06
            2052     147.821E-03     9.52088E-03     147.514E-03     315.392E-03    -146.347E-03    -169.045E-03    -165.939E-03     312.286E-03    -146.347E-03     75.5718E-03     323.567E-03     103.093E+06     55.2781E+06     33.9520E+06    -56.1891E+06    -32.9102E+06     12.5503E+06     53.4008E+06    -39.0849E+06
            2053     148.065E-03     10.3649E-03     147.702E-03     328.780E-03    -148.434E-03    -180.346E-03    -176.540E-03     324.974E-03    -148.434E-03     86.5814E-03     338.560E-03     95.8898E+06     74.3570E+06     43.5864E+06    -32.4006E+06    -18.5597E+06     29.7455E+06     74.3570E+06    -27.0991E+06
            2054     148.311E-03     11.1946E-03     147.888E-03     339.544E-03    -150.810E-03    -188.734E-03    -184.260E-03     335.070E-03    -150.810E-03     96.2601E-03     351.715E-03     94.9936E+06     85.4770E+06     56.9339E+06    -19.9522E+06    -14.8781E+06     51.8598E+06     85.4770E+06    -18.0791E+06
            2055     148.576E-03     12.0266E-03     148.089E-03     348.739E-03    -153.308E-03    -195.432E-03    -190.806E-03     344.114E-03    -153.308E-03     99.6598E-03     362.646E-03     92.3510E+06     81.1677E+06     55.5635E+06    -21.2373E+06    -16.4849E+06     50.8111E+06     81.1677E+06    -14.2964E+06
            2056     148.814E-03     12.8497E-03     148.259E-03     362.202E-03    -156.038E-03    -206.164E-03    -201.299E-03     357.337E-03    -156.038E-03     104.594E-03     378.883E-03     77.5520E+06     62.2076E+06     33.8767E+06    -24.0432E+06    -18.0332E+06     27.8667E+06     62.2076E+06    -11.9915E+06
            2057     149.080E-03     13.6684E-03     148.452E-03     371.234E-03    -159.024E-03    -212.210E-03    -206.476E-03     365.500E-03    -159.024E-03     114.723E-03     397.371E-03     59.1038E+06     42.6449E+06     8.61472E+06    -23.3284E+06    -17.1643E+06     2.45063E+06     42.6449E+06    -9.37186E+06
            2058     149.354E-03     14.4866E-03     148.650E-03     365.386E-03    -161.995E-03    -203.391E-03    -198.759E-03     360.755E-03    -161.995E-03     100.714E-03     393.928E-03     85.0170E+06     73.8288E+06     12.2594E+06    -22.9789E+06    -11.3096E+06     590.069E+03     73.8288E+06    -154.758E+03
            2059     147.871E-03     860.802E-06     147.869E-03     308.208E-03    -151.313E-03    -156.895E-03    -156.736E-03     308.176E-03    -151.440E-03    -662.332E-06     308.688E-03     35.3614E+06    -111.992E+06    -138.932E+06    -151.229E+06    -141.639E+06    -120.308E+06    -140.205E+06    -14.6016E+06
            2060     147.901E-03     1.71347E-03     147.892E-03     310.611E-03    -153.625E-03    -156.985E-03    -155.889E-03     310.529E-03    -154.640E-03    -10.9914E-03     311.236E-03     62.5763E+06    -81.4379E+06    -124.373E+06    -152.278E+06    -134.845E+06    -98.8716E+06    -124.373E+06    -29.8822E+06
            2061     147.947E-03     2.57091E-03     147.924E-03     305.871E-03    -150.919E-03    -154.952E-03    -151.083E-03     305.777E-03    -154.694E-03    -10.3888E-03     306.855E-03     81.4530E+06    -58.4749E+06    -104.587E+06    -151.647E+06    -125.655E+06    -84.4672E+06    -104.587E+06    -41.0061E+06
            2062     148.014E-03     3.43301E-03     147.974E-03     301.050E-03    -147.363E-03    -153.687E-03    -147.304E-03     300.991E-03    -153.687E-03    -2.99237E-03     302.414E-03     101.092E+06    -35.0167E+06    -82.4880E+06    -150.596E+06    -114.855E+06    -70.7576E+06    -82.4880E+06    -52.7149E+06
            2063     148.106E-03     4.29863E-03     148.044E-03     298.682E-03    -146.036E-03    -152.646E-03    -145.929E-03     298.575E-03    -152.646E-03     1.77336E-03     300.683E-03     117.417E+06    -15.7770E+06    -63.1285E+06    -148.909E+06    -104.362E+06    -60.3242E+06    -63.1285E+06    -62.4543E+06
            2064     148.222E-03     5.16332E-03     148.132E-03     298.490E-03    -146.510E-03    -151.980E-03    -146.355E-03     298.336E-03    -151.980E-03     5.41336E-03     301.232E-03     125.137E+06    -1.08308E+06    -43.1466E+06    -141.227E+06    -94.1724E+06    -48.1375E+06    -43.1466E+06    -65.8423E+06
            2065     148.361E-03     6.02290E-03     148.238E-03     299.878E-03    -148.119E-03    -151.759E-03    -147.938E-03     299.697E-03    -151.759E-03     9.18711E-03     303.559E-03     133.942E+06     10.1183E+06    -25.4597E+06    -137.581E+06    -86.3131E+06    -41.1496E+06    -25.4597E+06    -70.2057E+06
            2066     148.520E-03     6.88312E-03     148.361E-03     300.560E-03    -148.762E-03    -151.799E-03    -148.413E-03     300.211E-03    -151.799E-03     15.3389E-03     305.422E-03     139.671E+06     18.4481E+06    -14.2385E+06    -134.061E+06    -79.7070E+06    -35.9054E+06    -14.2385E+06    -72.8381E+06
            2067     148.711E-03     7.74407E-03     148.509E-03     301.396E-03    -148.417E-03    -152.979E-03    -148.896E-03     300.863E-03    -151.966E-03     23.2731E-03     307.291E-03     138.850E+06     27.2958E+06     218.927E+03    -122.588E+06    -71.6775E+06    -23.6147E+06     218.927E+03    -70.7498E+06
            2068     148.927E-03     8.60121E-03     148.678E-03     305.298E-03    -149.165E-03    -156.133E-03    -152.215E-03     304.576E-03    -152.361E-03     31.4066E-03     312.313E-03     133.295E+06     32.8509E+06     18.9664E+06    -106.396E+06    -61.7539E+06    -12.2222E+06     19.3980E+06    -64.4228E+06
            2069     149.163E-03     9.45214E-03     148.863E-03     310.782E-03    -150.901E-03    -159.881E-03    -156.631E-03     309.677E-03    -153.046E-03     42.4275E-03     319.013E-03     122.579E+06     39.8975E+06     29.6512E+06    -87.2854E+06    -52.1427E+06    -3.61420E+06     38.0202E+06    -53.5102E+06
            2070     149.418E-03     10.3040E-03     149.063E-03     317.536E-03    -152.338E-03    -165.198E-03    -161.764E-03     315.725E-03    -153.961E-03     57.0492E-03     327.047E-03     110.351E+06     57.5923E+06     30.7671E+06    -62.6657E+06    -39.5216E+06     7.62303E+06     57.5923E+06    -38.6546E+06
            2071     149.694E-03     11.1509E-03     149.278E-03     325.646E-03    -154.256E-03    -171.390E-03    -167.975E-03     323.051E-03    -155.076E-03     70.5798E-03     336.664E-03     101.757E+06     78.8940E+06     40.2719E+06    -35.6868E+06    -26.9081E+06     31.4932E+06     78.8940E+06    -19.4352E+06
            2072     149.948E-03     11.9928E-03     149.467E-03     336.736E-03    -156.469E-03    -180.267E-03    -176.935E-03     333.404E-03    -156.469E-03     81.8824E-03     349.232E-03     97.2182E+06     87.9652E+06     46.6227E+06    -22.1922E+06    -21.5255E+06     45.9560E+06     87.9652E+06    -4.55772E+06
            2073     150.234E-03     12.8291E-03     149.685E-03     351.746E-03    -158.319E-03    -193.427E-03    -189.210E-03     347.528E-03    -158.319E-03     95.1772E-03     367.724E-03     90.5174E+06     78.5302E+06     39.4739E+06    -24.0069E+06    -21.0128E+06     36.4798E+06     78.5302E+06    -3.67766E+06
            2074     150.506E-03     13.6436E-03     149.887E-03     358.915E-03    -160.499E-03    -198.416E-03    -193.491E-03     353.990E-03    -160.499E-03     104.231E-03     381.720E-03     76.7984E+06     53.8865E+06     13.1336E+06    -32.9656E+06    -20.3720E+06     540.048E+03     53.8865E+06    -6.28718E+06
            2075     150.769E-03     14.4678E-03     150.073E-03     352.489E-03    -162.665E-03    -189.824E-03    -185.550E-03     348.215E-03    -162.665E-03     95.3016E-03     378.071E-03     85.5388E+06     64.4644E+06     8.70549E+06    -33.0524E+06    -12.7962E+06    -11.5507E+06     64.4644E+06    -5.51379E+06
            2076     149.254E-03     838.434E-06     149.252E-03     345.803E-03    -168.896E-03    -176.907E-03    -169.893E-03     345.729E-03    -175.836E-03    -8.74650E-03     346.479E-03     41.1951E+06    -47.5694E+06    -60.6708E+06    -92.2592E+06    -62.7865E+06    -77.0421E+06    -60.6708E+06    -15.2053E+06
            2077     149.287E-03     1.68508E-03     149.278E-03     336.899E-03    -165.380E-03    -171.520E-03    -165.227E-03     336.747E-03    -171.520E-03    -17.1722E-03     337.466E-03     54.2283E+06    -25.0284E+06    -48.7601E+06    -86.3523E+06    -58.7335E+06    -52.6472E+06    -48.7601E+06    -29.0975E+06
            2078     149.318E-03     2.53331E-03     149.296E-03     333.516E-03    -164.116E-03    -169.400E-03    -163.841E-03     333.242E-03    -169.400E-03    -22.5530E-03     334.343E-03     73.9960E+06    -8.02147E+06    -34.0706E+06    -91.3173E+06    -52.5776E+06    -46.7612E+06    -34.0706E+06    -40.5072E+06
            2079     149.374E-03     3.38765E-03     149.335E-03     329.257E-03    -161.189E-03    -168.068E-03    -160.757E-03     328.825E-03    -168.068E-03    -25.9560E-03     330.516E-03     87.1304E+06     4.39943E+06    -19.6753E+06    -91.5651E+06    -47.9531E+06    -39.2125E+06    -19.6753E+06    -46.7852E+06
            2080     149.465E-03     4.23927E-03     149.405E-03     325.364E-03    -158.423E-03    -166.941E-03    -157.885E-03     324.826E-03    -166.941E-03    -28.2428E-03     327.246E-03     99.0465E+06     14.2173E+06    -4.14184E+06    -91.9478E+06    -45.9736E+06    -31.7569E+06    -4.14184E+06    -52.0027E+06
            2081     149.573E-03     5.09175E-03     149.486E-03     323.362E-03    -157.285E-03    -166.077E-03    -156.612E-03     322.688E-03    -166.077E-03    -30.1951E-03     325.973E-03     109.130E+06     21.3935E+06     5.68756E+06    -94.1322E+06    -44.2428E+06    -28.8971E+06     6.08875E+06    -56.3948E+06
            2082     149.715E-03     5.94637E-03     149.597E-03     321.866E-03    -156.330E-03    -165.536E-03    -155.531E-03     321.067E-03    -165.536E-03    -30.9460E-03     325.310E-03     113.044E+06     29.5198E+06     13.3085E+06    -90.4523E+06    -42.3910E+06    -23.6231E+06     18.3901E+06    -56.0042E+06
            2083     149.871E-03     6.79665E-03     149.717E-03     320.935E-03    -155.690E-03    -165.245E-03    -154.861E-03     320.106E-03    -165.245E-03    -30.1339E-03     325.443E-03     121.539E+06     39.9127E+06     19.3283E+06    -90.4888E+06    -42.4717E+06    -20.1233E+06     31.3473E+06    -58.0689E+06
            2084     150.054E-03     7.64622E-03     149.859E-03     318.664E-03    -153.620E-03    -165.045E-03    -152.769E-03     317.814E-03    -165.045E-03    -26.8928E-03     324.372E-03     125.996E+06     45.7714E+06     22.1592E+06    -89.8540E+06    -43.6309E+06    -17.4037E+06     39.1112E+06    -57.7400E+06
            2085     150.267E-03     8.49936E-03     150.027E-03     314.422E-03    -149.687E-03    -164.734E-03    -148.875E-03     313.609E-03    -164.734E-03    -19.5465E-03     321.421E-03     123.875E+06     47.5479E+06     23.8072E+06    -85.1486E+06    -47.4576E+06    -11.4945E+06     45.1587E+06    -52.1906E+06
            2086     150.505E-03     9.35570E-03     150.214E-03     310.843E-03    -146.611E-03    -164.232E-03    -145.935E-03     310.168E-03    -164.232E-03    -6.78985E-03     319.244E-03     121.914E+06     50.0591E+06     22.5966E+06    -81.4048E+06    -51.2217E+06    -7.58654E+06     50.0591E+06    -46.4592E+06
            2087     150.760E-03     10.2088E-03     150.414E-03     308.391E-03    -144.805E-03    -163.587E-03    -144.118E-03     307.705E-03    -163.587E-03     10.1612E-03     318.400E-03     119.901E+06     55.3566E+06     20.2709E+06    -77.1687E+06    -52.6226E+06    -4.27518E+06     55.3566E+06    -41.8261E+06
            2088     151.030E-03     11.0710E-03     150.624E-03     310.383E-03    -145.866E-03    -164.517E-03    -146.496E-03     309.502E-03    -163.006E-03     26.2619E-03     321.830E-03     115.735E+06     68.3337E+06     19.5563E+06    -63.1403E+06    -43.3910E+06    -193.045E+03     68.3337E+06    -31.3163E+06
            2089     151.319E-03     11.9256E-03     150.848E-03     318.982E-03    -149.864E-03    -169.119E-03    -154.876E-03     317.652E-03    -162.776E-03     43.6755E-03     332.051E-03     104.022E+06     82.9673E+06     31.8388E+06    -36.2084E+06    -26.9825E+06     22.6129E+06     82.9673E+06    -15.0850E+06
            2090     151.607E-03     12.7660E-03     151.069E-03     326.143E-03    -151.290E-03    -174.853E-03    -160.671E-03     323.583E-03    -162.912E-03     67.7024E-03     341.667E-03     87.3697E+06     87.7712E+06     38.3167E+06    -10.8595E+06    -7.53589E+06     34.9932E+06     87.7712E+06    -2.86026E+06
            2091     151.913E-03     13.6182E-03     151.302E-03     329.124E-03    -152.617E-03    -176.507E-03    -161.979E-03     325.163E-03    -163.185E-03     87.6654E-03     347.354E-03     79.7725E+06     72.3694E+06     23.3736E+06    -18.2081E+06     7.26106E+06    -2.09558E+06     72.3694E+06     7.00665E+06
            2092     152.155E-03     14.4702E-03     151.465E-03     331.336E-03    -157.849E-03    -173.487E-03    -163.640E-03     327.348E-03    -163.707E-03     88.5408E-03     352.566E-03     85.3762E+06     69.5657E+06     30.4264E+06    -27.8991E+06     12.1477E+06    -9.62042E+06     69.5657E+06     1.15352E+06
            2093     150.687E-03     816.566E-06     150.684E-03     380.701E-03    -185.244E-03    -195.457E-03    -188.545E-03     380.603E-03    -192.058E-03    -14.5417E-03     382.062E-03      81.294E+06     44.3422E+06     36.6510E+06    -40.3134E+06     39.2358E+06    -36.0477E+06     37.4918E+06    -13.0579E+06
            2094     150.700E-03     1.65898E-03     150.691E-03     372.314E-03    -183.384E-03    -188.931E-03    -183.237E-03     372.068E-03    -188.830E-03    -22.5199E-03     372.808E-03     66.1906E+06     43.4460E+06     30.9076E+06    -27.9258E+06     31.3893E+06    -15.8692E+06     30.9076E+06    -19.9429E+06
            2095     150.738E-03     2.49594E-03     150.718E-03     372.868E-03    -184.882E-03    -187.986E-03    -184.809E-03     372.235E-03    -187.426E-03    -36.0999E-03     373.369E-03     74.8444E+06     47.4281E+06     29.9366E+06    -34.4766E+06     23.3803E+06    -16.4153E+06     35.9231E+06    -26.0751E+06
            2096     150.791E-03     3.31996E-03     150.754E-03     373.214E-03    -184.714E-03    -188.499E-03    -184.569E-03     371.900E-03    -187.331E-03    -52.6569E-03     374.040E-03     81.0365E+06     47.9015E+06     31.2215E+06    -39.9137E+06     16.4656E+06    -19.3632E+06     42.1069E+06    -29.2483E+06
            2097     150.861E-03     4.15618E-03     150.803E-03     368.994E-03    -181.195E-03    -187.799E-03    -179.650E-03     366.841E-03    -187.191E-03    -66.2572E-03     370.297E-03     78.7122E+06     48.6442E+06     34.5832E+06    -35.1915E+06     10.9827E+06    -10.5219E+06     47.5750E+06    -30.9136E+06
            2098     150.976E-03     4.99158E-03     150.893E-03     362.938E-03    -176.311E-03    -186.627E-03    -173.267E-03     359.894E-03    -186.627E-03    -77.4421E-03     364.913E-03     89.4518E+06     56.3073E+06     31.8593E+06    -39.2771E+06     4.64030E+06    -11.9476E+06     56.1967E+06    -32.4153E+06
            2099     151.095E-03     5.82623E-03     150.983E-03     357.636E-03    -171.820E-03    -185.816E-03    -168.178E-03     353.995E-03    -185.816E-03    -84.2832E-03     360.419E-03     97.4100E+06     64.3668E+06     26.4706E+06    -42.0036E+06    -2.31989E+06    -13.2131E+06     64.3668E+06    -31.9724E+06
            2100     151.255E-03     6.66708E-03     151.108E-03     354.369E-03    -169.274E-03    -185.095E-03    -165.038E-03     350.132E-03    -185.095E-03    -89.4220E-03     358.140E-03     103.712E+06     76.2102E+06     24.2837E+06    -37.8627E+06    -6.70460E+06    -6.87443E+06     76.2102E+06    -29.9985E+06
            2101     151.430E-03     7.50394E-03     151.244E-03     348.463E-03    -164.089E-03    -184.374E-03    -159.012E-03     343.386E-03    -184.374E-03    -95.4540E-03     353.652E-03     112.984E+06     84.0881E+06     19.3467E+06    -39.9561E+06    -13.4579E+06    -7.15153E+06     84.0881E+06    -28.9469E+06
            2102     151.623E-03     8.34496E-03     151.393E-03     336.865E-03    -153.661E-03    -183.205E-03    -148.452E-03     331.657E-03    -183.205E-03    -93.4182E-03     343.682E-03     114.053E+06     86.5102E+06     17.4035E+06    -40.9408E+06    -17.9006E+06    -5.63671E+06     86.5102E+06    -26.2020E+06
            2103     151.843E-03     9.19621E-03     151.564E-03     324.369E-03    -142.885E-03    -181.484E-03    -137.839E-03     319.322E-03    -181.484E-03    -85.9534E-03     333.258E-03     112.797E+06     89.0506E+06     18.6317E+06    -38.1075E+06    -18.3412E+06    -1.13464E+06     89.0506E+06    -24.8394E+06
            2104     152.087E-03     10.0620E-03     151.754E-03     314.304E-03    -134.872E-03    -179.432E-03    -129.540E-03     308.973E-03    -179.432E-03    -79.2858E-03     325.693E-03     114.572E+06     88.9559E+06     16.9349E+06    -39.6607E+06    -20.1969E+06    -2.52895E+06     88.9559E+06    -22.5991E+06
            2105     152.352E-03     10.9248E-03     151.960E-03     306.006E-03    -128.744E-03    -177.262E-03    -123.650E-03     300.912E-03    -177.262E-03    -67.2914E-03     319.734E-03     114.155E+06     85.7455E+06     13.0736E+06    -42.7787E+06    -23.0158E+06    -6.68927E+06     85.7455E+06    -21.7699E+06
            2106     152.643E-03     11.7914E-03     152.187E-03     296.638E-03    -121.715E-03    -174.922E-03    -117.674E-03     292.597E-03    -174.922E-03    -44.9266E-03     313.231E-03     104.045E+06     80.2107E+06     17.5829E+06    -37.3830E+06    -19.3168E+06    -483.187E+03     80.2107E+06    -17.0650E+06
            2107     152.949E-03     12.6670E-03     152.423E-03     286.903E-03    -114.621E-03    -172.281E-03    -111.669E-03     283.951E-03    -172.281E-03    -14.2947E-03     306.439E-03     89.3007E+06     75.8249E+06     28.8796E+06    -22.9748E+06    -11.8868E+06     17.7916E+06     75.8249E+06    -7.71662E+06
            2108     153.226E-03     13.5531E-03     152.625E-03     280.357E-03    -110.852E-03    -169.505E-03    -108.639E-03     278.144E-03    -169.505E-03     16.4494E-03     304.206E-03     91.8770E+06     67.6382E+06     21.5672E+06    -35.4154E+06    -2.61278E+06    -11.2354E+06     67.6382E+06     2.02285E+06
            2109     153.523E-03     14.4364E-03     152.843E-03     277.898E-03    -111.068E-03    -166.830E-03    -108.888E-03     275.718E-03    -166.830E-03     45.6996E-03     307.535E-03     95.0516E+06     66.4647E+06     34.7773E+06    -38.9690E+06     6.55119E+06    -8.99682E+06     64.7185E+06     3.95712E+06


